0	1
0	2
0	3
0	4
0	5
0	6
0	7
0	8
0	9
0	10
0	11
0	12
0	13
0	14
0	15
0	16
0	17
0	18
0	19
0	20
0	21
0	22
0	23
0	24
0	25
0	26
0	27
0	28
0	29
0	30
0	31
0	32
0	33
0	34
0	35
0	36
0	37
0	38
0	39
0	40
0	41
0	42
0	43
0	44
0	45
0	46
0	47
0	48
0	49
0	50
0	51
0	52
0	53
0	54
0	55
0	56
0	57
0	58
0	59
0	60
0	61
0	62
0	63
0	64
0	65
0	66
0	67
0	68
0	69
0	70
0	71
0	72
0	73
0	74
0	75
0	76
0	77
0	78
0	79
0	80
0	81
0	82
0	83
0	84
0	85
0	86
0	87
0	88
0	89
0	90
0	91
0	92
0	93
0	94
0	95
0	96
0	97
0	98
0	99
0	100
0	101
0	102
0	103
0	104
0	105
0	106
0	107
0	108
0	109
0	110
0	111
0	112
0	113
0	114
0	115
0	116
0	117
0	118
0	119
0	120
0	121
0	122
0	123
0	124
0	125
0	126
0	127
0	128
0	129
0	130
0	131
0	132
0	133
0	134
0	135
0	136
0	137
0	138
0	139
0	140
0	141
0	142
0	143
0	144
0	145
0	146
0	147
0	148
0	149
0	150
1	20
1	31
1	46
1	49
1	68
1	80
1	93
1	98
1	151
1	152
1	153
1	154
1	155
1	156
1	157
1	158
1	159
1	160
1	161
1	162
1	163
1	164
1	165
1	166
1	167
1	168
1	169
1	170
1	171
1	172
1	173
1	174
1	175
1	176
1	177
1	178
1	179
1	180
1	181
1	182
1	183
1	184
1	185
1	186
1	187
1	188
1	189
1	190
1	191
1	192
1	193
1	194
1	195
1	196
1	197
1	198
1	199
1	200
1	201
1	202
1	203
1	204
1	205
1	206
1	207
1	208
1	209
1	210
1	211
1	212
1	213
1	214
1	215
1	216
1	217
1	218
1	219
1	220
1	221
1	222
1	223
1	224
1	225
1	226
1	227
1	228
1	229
1	230
1	231
1	232
1	233
1	234
1	235
1	236
1	237
1	238
1	239
1	240
1	241
1	242
1	243
1	244
1	245
1	246
1	247
1	248
1	249
1	250
1	251
2	3
2	4
2	6
2	7
2	9
2	10
2	20
2	24
2	33
2	41
2	49
2	54
2	59
2	71
2	73
2	74
2	75
2	82
2	91
2	104
2	107
2	153
2	174
2	291
2	312
2	322
2	401
2	405
2	406
2	415
2	607
2	715
2	824
2	876
2	877
2	879
2	880
2	884
2	885
2	897
2	898
2	925
2	926
2	944
2	956
2	961
2	970
2	980
2	1000
2	1002
2	1007
2	1013
2	1018
2	1036
2	1041
2	1046
2	1056
2	1058
2	1063
2	1080
2	1105
2	1140
2	1177
2	1184
2	1191
2	1192
2	1196
2	1197
2	1198
2	1208
2	1209
2	1210
2	1211
2	1212
2	1213
2	1214
2	1215
2	1216
2	1217
2	1218
2	1219
2	1220
2	1221
2	1222
2	1223
2	1224
2	1225
2	1226
2	1227
2	1228
2	1229
2	1230
2	1231
2	1232
2	1233
2	1234
2	1235
2	1236
2	1237
2	1238
2	1239
2	1240
2	1241
2	1242
2	1243
2	1244
2	1245
2	1246
2	1247
2	1248
2	1249
2	1250
2	1251
2	1252
2	1253
2	1254
2	1255
2	1256
2	1257
2	1258
2	1259
2	1260
2	1261
2	1262
2	1263
2	1264
2	1265
2	1266
2	1267
2	1268
2	1269
2	1270
2	1271
2	1272
2	1273
2	1274
2	1275
2	1276
2	1277
2	1278
2	1279
2	1280
2	1281
2	1282
2	1283
2	1284
2	1285
2	1286
2	1287
2	1288
2	1289
2	1290
2	1291
2	1292
2	1293
2	1294
2	1295
2	1296
2	1297
2	1298
2	1299
2	1300
2	1301
2	1302
2	1303
2	1304
2	1305
2	1306
2	1307
2	1308
2	1309
2	1310
2	1311
2	1312
2	1313
2	1314
2	1315
2	1316
2	1317
2	1318
2	1319
2	1320
2	1321
2	1322
2	1323
2	1324
2	1325
2	1326
2	1327
2	1328
2	1329
2	1330
2	1331
2	1332
2	1333
2	1334
2	1335
3	7
3	10
3	41
3	64
3	104
3	869
3	877
3	878
3	880
3	945
3	989
3	1000
3	1184
3	1505
3	1506
3	1507
3	1508
4	7
4	9
4	10
4	15
4	20
4	22
4	39
4	40
4	41
4	49
4	52
4	162
4	164
4	322
4	368
4	388
4	393
4	401
4	403
4	406
4	407
4	408
4	426
4	571
4	581
4	607
4	643
4	665
4	871
4	955
4	956
4	1001
4	1018
4	1031
4	1034
4	1039
4	1040
4	1041
4	1042
4	1046
4	1052
4	1062
4	1064
4	1078
4	1084
4	1099
4	1191
4	1192
4	1195
4	1197
4	1220
4	1221
4	1237
4	1238
4	1239
4	1384
4	1409
4	1410
4	1417
4	1450
4	1457
4	1541
4	1588
4	1610
4	1611
4	1657
4	1685
4	1686
4	1687
4	1688
4	1689
4	1690
4	1691
4	1692
4	1693
4	1694
4	1695
4	1696
4	1697
4	1698
4	1699
4	1700
4	1701
4	1702
4	1703
4	1704
4	1705
4	1706
4	1707
4	1708
4	1709
4	1710
4	1711
4	1712
4	1713
4	1714
4	1715
4	1716
4	1717
4	1718
5	297
6	7
6	10
6	15
6	18
6	20
6	181
6	326
6	401
6	416
6	783
6	871
6	878
6	891
6	915
6	1034
6	1056
6	1177
6	1178
6	1192
6	1195
6	1241
6	1368
6	1411
6	1459
6	1735
6	1761
6	2218
6	2219
6	2220
6	2221
6	2222
6	2223
6	2224
6	2225
6	2226
6	2227
6	2228
6	2229
6	2230
6	2231
6	2232
7	9
7	10
7	14
7	15
7	20
7	22
7	33
7	36
7	38
7	41
7	49
7	57
7	82
7	83
7	283
7	337
7	404
7	405
7	415
7	607
7	629
7	643
7	661
7	662
7	667
7	715
7	861
7	869
7	876
7	880
7	945
7	1005
7	1018
7	1049
7	1061
7	1062
7	1063
7	1082
7	1087
7	1118
7	1182
7	1191
7	1192
7	1194
7	1195
7	1198
7	1213
7	1233
7	1235
7	1238
7	1242
7	1247
7	1248
7	1266
7	1270
7	1271
7	1274
7	1282
7	1283
7	1303
7	1306
7	1307
7	1346
7	1349
7	1384
7	1412
7	1413
7	1423
7	1454
7	1472
7	1505
7	1526
7	1607
7	1702
7	1711
7	1754
7	1764
7	1805
7	2057
7	2267
7	2268
7	2269
7	2270
7	2271
7	2272
7	2273
7	2274
7	2275
7	2276
7	2277
7	2278
7	2279
7	2280
7	2281
7	2282
7	2283
7	2284
7	2285
7	2286
7	2287
7	2288
7	2289
7	2290
8	9
8	12
8	15
8	20
8	28
8	40
8	41
8	49
8	59
8	93
8	322
8	327
8	329
8	352
8	371
8	415
8	416
8	420
8	461
8	547
8	550
8	554
8	578
8	580
8	581
8	644
8	645
8	660
8	661
8	745
8	769
8	813
8	868
8	872
8	877
8	878
8	881
8	914
8	921
8	926
8	931
8	935
8	1028
8	1129
8	1192
8	1194
8	1195
8	1196
8	1210
8	1212
8	1213
8	1230
8	1235
8	1237
8	1241
8	1265
8	1271
8	1295
8	1309
8	1315
8	1317
8	1336
8	1337
8	1338
8	1340
8	1343
8	1344
8	1347
8	1349
8	1351
8	1352
8	1354
8	1355
8	1357
8	1362
8	1363
8	1364
8	1365
8	1366
8	1367
8	1377
8	1378
8	1380
8	1382
8	1388
8	1412
8	1413
8	1414
8	1417
8	1425
8	1427
8	1472
8	1475
8	1512
8	1615
8	1622
8	1807
8	1832
8	1847
8	1869
8	1943
8	2047
8	2102
8	2143
8	2163
8	2164
8	2168
8	2199
8	2216
8	2235
8	2245
8	2248
8	2270
8	2291
8	2310
8	2318
8	2340
8	2341
8	2342
8	2343
8	2344
8	2345
8	2346
8	2347
8	2348
8	2349
8	2350
8	2351
8	2352
8	2353
8	2354
8	2355
8	2356
8	2357
8	2358
8	2359
8	2360
8	2361
8	2362
8	2363
8	2364
8	2365
8	2366
8	2367
8	2368
8	2369
8	2370
8	2371
8	2372
8	2373
8	2374
8	2375
8	2376
9	10
9	11
9	12
9	15
9	20
9	24
9	33
9	36
9	41
9	47
9	57
9	67
9	74
9	160
9	174
9	190
9	274
9	312
9	337
9	368
9	370
9	401
9	414
9	415
9	416
9	420
9	426
9	429
9	433
9	532
9	550
9	605
9	619
9	665
9	715
9	731
9	745
9	869
9	875
9	1002
9	1007
9	1025
9	1033
9	1036
9	1055
9	1056
9	1066
9	1072
9	1075
9	1101
9	1153
9	1178
9	1179
9	1191
9	1192
9	1195
9	1213
9	1221
9	1235
9	1236
9	1282
9	1383
9	1389
9	1409
9	1410
9	1423
9	1454
9	1470
9	1472
9	1477
9	1588
9	1591
9	1592
9	1593
9	1594
9	1610
9	1626
9	1727
9	1766
9	1780
9	1792
9	1805
9	1955
9	1996
9	2041
9	2042
9	2043
9	2047
9	2049
9	2051
9	2052
9	2056
9	2058
9	2061
9	2063
9	2080
9	2130
9	2270
9	2272
9	2339
9	2478
9	2479
9	2480
9	2481
9	2482
9	2483
9	2484
9	2485
9	2486
9	2487
9	2488
9	2489
9	2490
9	2491
9	2492
9	2493
9	2494
9	2495
9	2496
9	2497
9	2498
9	2499
9	2500
9	2501
9	2502
9	2503
9	2504
9	2505
9	2506
9	2507
10	11
10	12
10	15
10	18
10	20
10	24
10	36
10	41
10	49
10	59
10	60
10	87
10	104
10	107
10	115
10	154
10	174
10	202
10	291
10	322
10	337
10	406
10	458
10	607
10	618
10	665
10	715
10	872
10	873
10	876
10	888
10	891
10	897
10	927
10	928
10	944
10	956
10	957
10	963
10	975
10	1000
10	1007
10	1011
10	1023
10	1024
10	1035
10	1036
10	1044
10	1046
10	1056
10	1063
10	1066
10	1084
10	1093
10	1107
10	1116
10	1128
10	1136
10	1159
10	1188
10	1191
10	1192
10	1195
10	1196
10	1197
10	1208
10	1209
10	1210
10	1213
10	1214
10	1216
10	1217
10	1218
10	1219
10	1221
10	1224
10	1225
10	1226
10	1232
10	1234
10	1235
10	1237
10	1240
10	1241
10	1243
10	1246
10	1250
10	1251
10	1252
10	1253
10	1254
10	1255
10	1257
10	1262
10	1266
10	1267
10	1270
10	1271
10	1274
10	1275
10	1276
10	1282
10	1295
10	1296
10	1297
10	1299
10	1300
10	1301
10	1304
10	1307
10	1308
10	1310
10	1312
10	1313
10	1314
10	1317
10	1318
10	1320
10	1321
10	1323
10	1328
10	1332
10	1335
10	1337
10	1338
10	1345
10	1362
10	1368
10	1391
10	1395
10	1411
10	1413
10	1417
10	1421
10	1423
10	1425
10	1427
10	1451
10	1453
10	1460
10	1484
10	1528
10	1559
10	1563
10	1605
10	1610
10	1652
10	1672
10	1695
10	1699
10	1715
10	1722
10	1740
10	1744
10	1746
10	1761
10	1789
10	1794
10	1993
10	2049
10	2131
10	2220
10	2402
10	2488
10	2559
10	2562
10	2563
10	2564
10	2565
10	2566
10	2567
10	2568
10	2569
10	2570
10	2571
10	2572
10	2573
10	2574
10	2575
10	2576
10	2577
10	2578
10	2579
10	2580
10	2581
10	2582
10	2583
10	2584
10	2585
10	2586
10	2587
10	2588
10	2589
10	2590
10	2591
10	2592
10	2593
10	2594
10	2595
11	20
11	27
11	41
11	42
11	49
11	64
11	103
11	262
11	401
11	404
11	715
11	895
11	971
11	989
11	1191
11	1192
11	1362
11	1573
11	1752
11	2705
11	2706
11	2707
12	13
12	16
12	19
12	20
12	28
12	32
12	33
12	47
12	53
12	54
12	55
12	60
12	64
12	68
12	78
12	80
12	81
12	83
12	88
12	91
12	92
12	93
12	94
12	100
12	104
12	105
12	109
12	110
12	113
12	116
12	125
12	129
12	131
12	132
12	134
12	137
12	141
12	142
12	153
12	169
12	180
12	189
12	200
12	207
12	215
12	220
12	536
12	569
12	884
12	889
12	1056
12	1090
12	1105
12	1252
12	1329
12	1390
12	1482
12	1484
12	1506
12	1600
12	1758
12	1887
12	2213
12	2467
12	2488
12	2522
12	2567
12	2716
12	2921
12	2926
12	2932
12	2938
12	2947
12	2948
12	2949
12	2950
12	2951
12	2952
12	2953
12	2954
12	2955
12	2956
12	2957
12	2958
12	2959
12	2960
12	2961
12	2962
12	2963
12	2964
12	2965
12	2966
12	2967
12	2968
12	2969
12	2970
12	2971
12	2972
12	2973
12	2974
12	2975
12	2976
12	2977
12	2978
12	2979
12	2980
13	68
13	93
13	100
13	110
13	153
13	189
13	200
13	207
13	232
13	237
13	361
13	619
13	686
13	737
13	1252
13	1625
13	1758
13	1885
13	2176
13	2716
13	2957
13	2964
13	2965
13	2979
13	2980
13	2981
13	2982
13	2983
13	2984
13	2985
13	2986
13	2987
14	20
14	49
14	64
14	91
14	402
14	1000
14	1105
14	1179
14	1421
14	1441
14	3007
14	3008
15	20
15	41
15	42
15	49
15	58
15	59
15	103
15	322
15	368
15	401
15	404
15	408
15	439
15	644
15	721
15	824
15	873
15	878
15	927
15	963
15	1000
15	1005
15	1018
15	1041
15	1063
15	1080
15	1082
15	1127
15	1140
15	1162
15	1178
15	1179
15	1181
15	1188
15	1191
15	1195
15	1197
15	1202
15	1239
15	1248
15	1262
15	1271
15	1309
15	1317
15	1384
15	1385
15	1386
15	1410
15	1413
15	1428
15	1455
15	1481
15	1526
15	1528
15	1536
15	1607
15	1610
15	1616
15	1715
15	1756
15	2069
15	2236
15	2270
15	2276
15	2566
15	3022
15	3023
15	3046
15	3047
15	3048
15	3049
15	3050
15	3051
15	3052
15	3053
15	3054
15	3055
15	3056
15	3057
15	3058
16	17
16	20
16	21
16	22
16	24
16	28
16	29
16	32
16	43
16	49
16	55
16	66
16	72
16	76
16	78
16	88
16	94
16	99
16	101
16	106
16	109
16	116
16	121
16	124
16	125
16	126
16	130
16	131
16	132
16	134
16	137
16	138
16	140
16	142
16	153
16	170
16	296
16	309
16	343
16	536
16	550
16	569
16	575
16	591
16	675
16	744
16	814
16	871
16	936
16	1000
16	1016
16	1058
16	1090
16	1163
16	1201
16	1228
16	1368
16	1545
16	1566
16	1658
16	1684
16	1723
16	1753
16	1780
16	1860
16	1892
16	1902
16	1908
16	1909
16	2033
16	2063
16	2105
16	2116
16	2346
16	2392
16	2488
16	2544
16	2547
16	2617
16	2620
16	2635
16	2651
16	2716
16	2918
16	2919
16	2920
16	2921
16	2922
16	2923
16	2924
16	2925
16	2926
16	2928
16	2929
16	2931
16	2932
16	2933
16	2934
16	2936
16	2938
16	2939
16	2940
16	2951
16	2956
16	2962
16	2966
16	2969
16	2970
16	3034
16	3060
16	3061
16	3062
16	3063
16	3064
16	3065
16	3066
16	3067
16	3068
16	3069
16	3070
16	3071
16	3072
16	3073
16	3074
16	3075
16	3076
16	3077
16	3078
16	3079
16	3080
16	3081
16	3082
16	3083
16	3084
16	3085
16	3086
16	3087
16	3088
16	3089
16	3090
16	3091
16	3092
16	3093
16	3094
16	3095
16	3096
16	3097
16	3098
16	3099
16	3100
17	20
17	21
17	24
17	28
17	72
17	99
17	309
17	426
17	744
17	814
17	1000
17	1002
17	1201
17	1368
17	1566
17	1690
17	1892
17	1896
17	1902
17	1903
17	1908
17	1909
17	1998
17	2049
17	2105
17	2544
17	2547
17	2646
17	2956
17	3069
17	3078
17	3097
17	3098
17	3101
18	49
18	368
18	660
18	869
18	1006
18	1184
18	1383
18	1385
18	1393
18	1414
18	1416
18	1439
18	1459
18	2562
18	2566
18	3186
19	155
19	552
19	1846
19	2203
19	2431
19	2612
19	2621
19	2626
19	2640
19	2643
19	2655
19	2763
19	3067
19	3303
20	24
20	32
20	34
20	39
20	40
20	41
20	42
20	44
20	45
20	46
20	47
20	48
20	49
20	53
20	56
20	57
20	58
20	59
20	60
20	61
20	64
20	68
20	69
20	71
20	73
20	74
20	75
20	77
20	78
20	81
20	87
20	88
20	91
20	93
20	95
20	96
20	97
20	100
20	102
20	110
20	111
20	114
20	115
20	131
20	134
20	155
20	157
20	160
20	166
20	181
20	189
20	200
20	205
20	209
20	232
20	234
20	246
20	290
20	309
20	322
20	336
20	337
20	415
20	431
20	439
20	618
20	619
20	650
20	660
20	661
20	667
20	671
20	770
20	827
20	871
20	880
20	884
20	885
20	924
20	944
20	965
20	1000
20	1011
20	1025
20	1034
20	1042
20	1056
20	1087
20	1158
20	1188
20	1197
20	1201
20	1253
20	1271
20	1275
20	1316
20	1317
20	1412
20	1421
20	1460
20	1497
20	1609
20	1696
20	1758
20	1759
20	1785
20	1843
20	1845
20	1901
20	2213
20	2345
20	2498
20	2572
20	2577
20	2578
20	2716
20	2732
20	2781
20	2956
20	2959
20	2961
20	3003
20	3016
20	3052
20	3069
20	3303
20	3311
20	3312
20	3313
20	3314
20	3315
20	3316
20	3317
20	3318
20	3319
20	3320
20	3321
20	3322
20	3323
20	3324
20	3325
20	3326
20	3327
20	3328
20	3329
20	3330
20	3331
20	3332
20	3333
20	3334
20	3335
20	3336
20	3337
20	3338
20	3339
20	3340
20	3341
20	3342
20	3343
20	3344
20	3345
20	3346
20	3347
21	153
21	297
21	324
21	325
21	329
21	1039
21	1689
21	2689
21	2952
21	2959
21	3150
21	3373
21	3437
21	3438
21	3439
21	3440
21	3441
21	3442
21	3443
21	3444
21	3445
21	3446
21	3447
21	3448
21	3449
21	3450
21	3451
21	3452
22	32
22	65
22	78
22	322
22	375
22	415
22	420
22	441
22	442
22	505
22	547
22	755
22	822
22	825
22	827
22	1007
22	1049
22	1076
22	1197
22	1199
22	1254
22	1286
22	1337
22	1364
22	1451
22	1508
22	1535
22	1547
22	1637
22	1693
22	1724
22	1753
22	1799
22	1828
22	1859
22	1860
22	1953
22	2120
22	2174
22	2223
22	2433
22	2584
22	2781
22	2804
22	2959
22	3474
22	3681
22	3685
22	3686
22	3687
22	3688
22	3689
23	265
23	314
23	548
23	619
23	657
23	761
23	801
23	915
23	3538
23	3647
23	3648
23	3925
23	3926
23	3927
23	3928
23	3929
23	3930
23	3931
23	3932
23	3933
23	3934
24	34
24	45
24	49
24	60
24	74
24	75
24	165
24	254
24	336
24	341
24	368
24	373
24	403
24	420
24	557
24	608
24	642
24	715
24	721
24	751
24	754
24	771
24	782
24	814
24	825
24	828
24	878
24	903
24	925
24	1012
24	1016
24	1018
24	1023
24	1049
24	1052
24	1058
24	1059
24	1201
24	1208
24	1209
24	1221
24	1233
24	1241
24	1258
24	1409
24	1420
24	1461
24	1487
24	1563
24	1568
24	1610
24	1753
24	1780
24	1827
24	1829
24	1838
24	1901
24	1937
24	1939
24	1950
24	1980
24	1984
24	2073
24	2103
24	2161
24	2164
24	2177
24	2183
24	2201
24	2202
24	2258
24	2270
24	2313
24	2340
24	2377
24	2392
24	2829
24	2837
24	2838
24	2839
24	2870
24	3241
24	3242
24	3316
24	3434
24	3499
24	3574
24	3696
24	3785
24	4042
24	4043
24	4044
24	4045
24	4046
24	4047
24	4048
24	4049
24	4050
24	4051
24	4052
24	4053
24	4054
24	4055
24	4056
24	4057
24	4058
24	4059
24	4060
24	4061
24	4062
24	4063
24	4064
24	4065
24	4066
24	4067
25	31
25	64
25	333
25	369
25	571
25	1636
25	1925
25	2867
25	3133
25	3135
25	3483
25	4116
25	4314
25	4341
25	4342
25	4343
25	4344
26	369
26	2959
26	4405
27	31
27	33
27	36
27	47
27	68
27	156
27	187
27	268
27	361
27	397
27	400
27	450
27	492
27	522
27	594
27	689
27	824
27	1083
27	1441
27	1509
27	1582
27	1725
27	1740
27	1959
27	2066
27	2103
27	2201
27	2464
27	2639
27	2641
27	2662
27	2665
27	2705
27	2892
27	3135
27	3303
27	3331
27	3402
27	3590
27	3813
27	4085
27	4602
27	4603
27	4604
27	4605
27	4606
27	4607
27	4608
27	4609
27	4610
27	4611
27	4612
27	4613
27	4614
27	4615
27	4616
27	4617
27	4618
27	4619
27	4620
27	4621
27	4622
28	41
28	49
28	66
28	74
28	153
28	255
28	256
28	263
28	323
28	370
28	420
28	514
28	552
28	619
28	665
28	689
28	745
28	813
28	825
28	827
28	1006
28	1018
28	1210
28	1228
28	1338
28	1357
28	1723
28	1822
28	1852
28	2047
28	2072
28	2248
28	2429
28	2439
28	2550
28	2637
28	2644
28	2646
28	2829
28	2956
28	2959
28	3066
28	3216
28	3241
28	3276
28	3480
28	3484
28	3660
28	3784
28	4773
28	4774
28	4775
28	4776
28	4777
28	4778
29	255
29	326
29	330
29	331
29	817
29	917
29	1052
29	2444
29	2766
29	2959
29	4122
29	4750
30	49
30	50
30	100
30	123
30	155
30	168
30	187
30	188
30	256
30	263
30	280
30	336
30	559
30	583
30	689
30	804
30	864
30	968
30	993
30	1017
30	1048
30	1083
30	1090
30	1099
30	1106
30	1112
30	1113
30	1119
30	1121
30	1132
30	1165
30	1166
30	1167
30	1171
30	1210
30	1472
30	1489
30	1513
30	1587
30	1642
30	1643
30	1653
30	1684
30	1787
30	1824
30	1854
30	1921
30	1924
30	1951
30	2104
30	2424
30	2602
30	2789
30	2851
30	3312
30	3392
30	3408
30	3551
30	4159
30	4379
30	4416
30	4444
30	4500
30	4698
30	4807
30	4808
30	4809
30	4810
30	4811
30	4812
30	4813
30	4814
30	4815
30	4816
30	4817
30	4818
30	4819
30	4820
30	4821
30	4822
30	4823
31	64
31	86
31	274
31	290
31	640
31	816
31	818
31	1509
31	1684
31	1910
31	1918
31	1960
31	2161
31	2260
31	2379
31	2394
31	2441
31	2784
31	2786
31	2793
31	2867
31	2887
31	2947
31	3049
31	3126
31	3127
31	3130
31	3132
31	3140
31	3141
31	3162
31	3166
31	3167
31	3169
31	3170
31	3171
31	3178
31	3179
31	3180
31	3379
31	3484
31	3493
31	3612
31	3666
31	3736
31	3746
31	3895
31	3897
31	4116
31	4243
31	4335
31	4336
31	4337
31	4340
31	4470
31	4481
31	4489
31	4490
31	4520
31	4696
31	4930
31	4931
31	4932
31	4933
31	4934
31	4935
31	4936
31	4937
31	4938
31	4939
32	49
32	116
32	153
32	441
32	442
32	461
32	545
32	547
32	769
32	1411
32	1515
32	1527
32	1615
32	1723
32	2078
32	2347
32	2433
32	2434
32	2584
32	2707
32	2799
32	2959
32	4659
32	5049
32	5050
32	5051
32	5052
33	36
33	41
33	42
33	47
33	64
33	67
33	104
33	262
33	322
33	336
33	373
33	404
33	607
33	743
33	869
33	923
33	927
33	944
33	989
33	1007
33	1080
33	1191
33	1208
33	1358
33	1368
33	1395
33	1411
33	1462
33	1484
33	1523
33	1573
33	2270
33	2286
33	3041
33	4133
33	4810
33	5053
33	5054
33	5055
34	49
34	323
34	329
34	336
34	341
34	350
34	353
34	363
34	365
34	557
34	1018
34	1059
34	1368
34	2430
34	2710
34	4179
34	5118
34	5119
34	5120
34	5121
34	5122
34	5123
35	254
35	1202
35	2686
35	4653
35	5333
35	5334
35	5335
35	5336
35	5337
36	37
36	41
36	57
36	64
36	67
36	71
36	104
36	154
36	178
36	299
36	322
36	400
36	401
36	409
36	415
36	506
36	522
36	533
36	544
36	607
36	652
36	731
36	827
36	869
36	884
36	927
36	945
36	955
36	957
36	971
36	1002
36	1013
36	1024
36	1061
36	1089
36	1105
36	1135
36	1196
36	1241
36	1271
36	1273
36	1309
36	1317
36	1362
36	1405
36	1462
36	1463
36	1487
36	1505
36	1510
36	1511
36	1512
36	1513
36	1514
36	1519
36	1520
36	1522
36	1523
36	1526
36	1556
36	1558
36	1561
36	1570
36	1633
36	2112
36	2250
36	2450
36	2699
36	3013
36	3016
36	3033
36	3041
36	3466
36	4711
36	4977
36	5088
36	5446
36	5479
36	5526
36	5527
36	5528
36	5529
36	5530
36	5531
36	5532
36	5533
36	5534
36	5535
36	5536
37	328
37	370
37	373
37	1286
37	1512
37	1515
37	1572
37	1834
37	1859
37	2341
37	2433
37	2517
37	2520
37	2645
37	2959
37	4072
37	4074
37	4708
37	5098
37	5693
37	5694
38	40
38	41
38	49
38	322
38	571
38	876
38	1044
38	1045
38	1111
38	1124
38	1145
38	1157
38	1161
38	1213
38	1233
38	1724
38	2046
38	2067
38	2573
38	2807
38	3074
38	3743
38	5314
38	5504
38	5529
38	5725
39	41
39	660
39	661
39	1266
39	1412
39	1413
39	2278
39	2282
39	2283
39	2284
39	3469
39	5727
40	41
40	404
40	661
40	667
40	1005
40	1087
40	1118
40	1266
40	1306
40	1346
40	1412
40	1413
40	1758
40	2282
40	2283
40	2284
40	5727
41	42
41	49
41	59
41	73
41	74
41	75
41	78
41	87
41	107
41	154
41	174
41	254
41	322
41	388
41	403
41	404
41	405
41	414
41	416
41	417
41	419
41	420
41	443
41	490
41	550
41	644
41	648
41	660
41	665
41	715
41	769
41	783
41	813
41	814
41	825
41	870
41	875
41	878
41	879
41	885
41	887
41	888
41	889
41	900
41	915
41	926
41	927
41	960
41	964
41	966
41	1005
41	1007
41	1033
41	1036
41	1052
41	1058
41	1072
41	1099
41	1100
41	1101
41	1178
41	1179
41	1181
41	1184
41	1188
41	1191
41	1195
41	1213
41	1219
41	1221
41	1235
41	1236
41	1265
41	1275
41	1282
41	1309
41	1353
41	1354
41	1409
41	1410
41	1417
41	1428
41	1454
41	1459
41	1539
41	1587
41	1588
41	1589
41	1591
41	1592
41	1593
41	1594
41	1610
41	1612
41	1711
41	1714
41	1796
41	1803
41	1973
41	1984
41	2044
41	2050
41	2051
41	2052
41	2053
41	2064
41	2079
41	2080
41	2102
41	2164
41	2222
41	2233
41	2277
41	2285
41	2319
41	2345
41	2414
41	2481
41	2483
41	2491
41	2496
41	2505
41	2591
41	2596
41	2609
41	2674
41	2685
41	2850
41	3026
41	3028
41	3047
41	3101
41	3224
41	3398
41	3527
41	3620
41	4693
41	4859
41	5422
41	5699
41	5700
41	5737
41	5773
41	5786
41	5787
41	5788
41	5789
41	5790
41	5791
41	5792
41	5793
41	5794
41	5795
41	5796
41	5797
42	49
42	174
42	254
42	414
42	665
42	769
42	783
42	879
42	889
42	915
42	1033
42	1178
42	1179
42	1213
42	1219
42	1235
42	1275
42	1309
42	1353
42	1354
42	1417
42	1592
42	1612
42	1803
42	2053
42	2061
42	2222
42	2273
42	2277
42	2491
42	2505
42	2674
42	5009
42	5616
42	5737
42	5773
42	5788
42	5792
42	5793
42	5797
43	256
43	488
43	647
43	652
43	751
43	769
43	813
43	956
43	1212
43	1747
43	1822
43	2107
43	2115
43	2133
43	2165
43	2184
43	2194
43	2214
43	2509
44	49
44	263
44	331
44	552
44	689
44	758
44	879
44	1014
44	1134
44	1368
44	2337
44	2358
44	2390
44	2434
44	2617
44	2618
44	2631
44	2815
44	4656
44	4944
44	5594
44	5836
44	6070
44	6071
45	336
45	444
45	496
45	928
45	1191
45	1409
45	1748
45	1776
45	1843
45	1990
45	2223
45	2338
45	2781
45	3303
45	4215
45	4606
45	4714
45	5053
45	5137
45	5284
45	6272
46	103
46	490
46	689
46	723
46	770
46	1018
46	3199
46	3201
46	3241
46	4781
46	5270
46	6286
47	49
47	60
47	64
47	104
47	322
47	397
47	400
47	401
47	431
47	450
47	507
47	510
47	824
47	934
47	945
47	951
47	965
47	967
47	969
47	979
47	989
47	1031
47	1109
47	1136
47	1216
47	1217
47	1368
47	1456
47	1505
47	1587
47	2718
47	3802
47	5227
47	5701
47	6120
48	49
48	50
48	390
48	392
48	2344
48	2522
48	5034
48	5426
48	6294
48	6295
48	6296
48	6297
49	53
49	58
49	60
49	64
49	66
49	68
49	73
49	78
49	81
49	82
49	85
49	87
49	88
49	91
49	93
49	97
49	98
49	99
49	100
49	104
49	106
49	109
49	110
49	114
49	115
49	116
49	123
49	125
49	130
49	131
49	132
49	134
49	157
49	160
49	164
49	166
49	183
49	200
49	204
49	206
49	208
49	211
49	215
49	216
49	224
49	229
49	290
49	309
49	322
49	336
49	337
49	401
49	462
49	476
49	536
49	661
49	667
49	722
49	827
49	871
49	873
49	878
49	911
49	924
49	944
49	965
49	1005
49	1056
49	1090
49	1105
49	1197
49	1201
49	1212
49	1222
49	1275
49	1381
49	1421
49	1433
49	1472
49	1537
49	1600
49	1609
49	1622
49	1696
49	1725
49	1826
49	1845
49	2063
49	2083
49	2136
49	2147
49	2213
49	2257
49	2345
49	2488
49	2525
49	2577
49	2716
49	2956
49	2961
49	2962
49	2972
49	2979
49	2980
49	3069
49	3074
49	3209
49	3313
49	3317
49	3318
49	3320
49	3322
49	3323
49	3347
49	3659
49	3867
49	4235
49	4267
49	4354
49	5002
49	5032
49	5607
49	5669
49	5703
49	6206
49	6261
49	6298
49	6299
49	6300
49	6301
49	6302
49	6303
49	6304
49	6305
49	6306
49	6307
49	6308
49	6309
49	6310
50	1609
50	1926
50	2488
50	2526
51	443
51	974
51	1170
51	2005
51	2070
51	2446
51	3286
51	3788
51	5481
51	6349
51	6350
51	6351
51	6352
52	190
52	555
52	647
52	731
52	755
52	1048
52	1150
52	1530
52	4972
52	5953
52	6116
52	6143
52	6364
52	6365
53	163
53	385
53	428
53	787
53	825
53	1201
53	1368
53	1829
53	1937
53	2336
53	4032
53	4128
53	5694
54	128
54	185
54	260
54	326
54	333
54	334
54	354
54	362
54	367
54	493
54	494
54	500
54	505
54	512
54	527
54	604
54	658
54	688
54	689
54	697
54	915
54	1031
54	1141
54	1248
54	1482
54	1747
54	1754
54	1775
54	1801
54	1849
54	2176
54	2415
54	2462
54	2484
54	2550
54	2576
54	2584
54	2861
54	2967
54	3187
54	3282
54	3315
54	3399
54	3469
54	3652
54	3685
54	3775
54	3996
54	4083
54	4085
54	4173
54	4365
54	4436
54	4473
54	4662
54	4729
54	4916
54	4964
54	5025
54	5265
54	5372
54	5378
54	5526
54	5591
54	5796
54	6122
54	6166
54	6441
54	6442
54	6443
54	6444
54	6445
54	6446
54	6447
54	6448
54	6449
54	6450
54	6451
54	6452
54	6453
54	6454
54	6455
54	6456
54	6457
54	6458
54	6459
54	6460
54	6461
54	6462
54	6463
54	6464
54	6465
54	6466
54	6467
54	6468
54	6469
54	6470
54	6471
54	6472
54	6473
54	6474
54	6475
54	6476
54	6477
54	6478
54	6479
54	6480
54	6481
54	6482
54	6483
54	6484
54	6485
55	153
55	783
55	915
55	2222
55	2893
55	3498
55	4273
55	4886
55	5804
56	420
56	554
56	607
56	619
56	683
56	685
56	711
56	724
56	781
56	915
56	1238
56	1244
56	2361
56	2390
56	2398
56	2429
56	2439
56	2832
56	3433
56	3508
56	5594
56	6431
56	6525
56	6526
57	59
57	70
57	660
57	661
57	667
57	1018
57	1195
57	1208
57	1214
57	1228
57	1248
57	1266
57	1349
57	1412
57	1461
57	1699
57	2272
57	2273
57	2274
57	3106
57	3507
57	5698
57	6643
57	6644
57	6645
58	401
58	407
58	784
58	871
58	1034
58	1040
58	1050
58	1067
58	1197
58	1208
58	1252
58	1253
58	1254
58	1421
58	1589
58	1610
58	1696
58	1712
58	1754
58	1996
58	2221
58	2461
58	3017
58	3019
58	3020
58	3021
58	6689
59	74
59	337
59	403
59	415
59	420
59	652
59	722
59	861
59	961
59	966
59	1005
59	1055
59	1063
59	1103
59	1106
59	1177
59	1191
59	1195
59	1196
59	1197
59	1208
59	1214
59	1237
59	1242
59	1246
59	1247
59	1248
59	1249
59	1265
59	1314
59	1346
59	1409
59	1417
59	1423
59	1624
59	3568
59	4487
59	5698
59	6205
59	6700
59	6701
60	618
60	903
60	945
60	956
60	1215
60	1230
60	1362
60	1606
60	1975
60	4567
60	6714
60	6715
60	6716
61	660
61	673
61	1018
61	1176
61	1197
61	1203
61	1205
61	1256
61	1383
61	1393
61	1627
61	1628
61	1629
61	1630
61	1714
61	3966
61	6778
61	6779
62	1034
62	6814
63	384
63	426
63	505
63	975
63	1690
63	2012
63	2047
63	3376
63	3788
64	68
64	111
64	166
64	181
64	205
64	213
64	232
64	234
64	457
64	605
64	621
64	1025
64	1108
64	1178
64	1179
64	1190
64	1456
64	1511
64	1583
64	1751
64	1845
64	1857
64	1873
64	2201
64	2716
64	2747
64	2835
64	2955
64	3033
64	3127
64	3133
64	3199
64	3200
64	3201
64	3317
64	3403
64	3763
64	4310
64	4351
64	4882
64	4947
64	5672
64	5893
64	6307
64	6904
64	6914
64	6915
64	6916
64	6917
64	6918
64	6919
64	6920
64	6921
64	6922
64	6923
64	6924
64	6925
64	6926
64	6927
64	6928
64	6929
65	322
65	416
65	665
65	689
65	1011
65	1025
65	1032
65	1039
65	1052
65	1078
65	1191
65	1236
65	1710
65	2781
65	3303
65	5840
65	6809
66	153
66	488
66	552
66	1723
66	2632
66	6956
67	104
67	869
67	1198
67	1237
67	1303
67	1381
67	1507
67	1524
67	1720
67	3332
67	4133
67	5531
67	7088
68	886
68	2585
68	2716
68	3393
68	3405
68	3687
68	3794
68	3803
68	4031
68	4165
68	4166
68	4470
68	5141
68	6084
68	6361
68	6444
68	7089
69	279
69	424
69	608
69	778
69	932
69	1336
69	1429
69	1466
69	1612
69	1755
69	2981
69	3244
69	3539
69	3584
69	4177
69	4393
69	4578
69	4605
69	4627
69	5581
69	5751
69	5934
69	5935
69	6251
69	6412
69	7110
69	7111
69	7112
70	666
70	1349
70	1350
70	1357
70	1359
70	1375
71	204
71	402
71	1179
71	3691
71	3965
71	7150
72	1195
72	1512
72	3107
72	5293
72	7300
72	7301
73	74
73	322
73	414
73	660
73	715
73	1033
73	1209
73	1213
73	1317
73	1328
73	1353
73	1428
73	1592
73	1596
73	1597
73	1794
73	2056
73	2080
73	4580
73	5702
73	5791
74	81
74	254
74	665
74	689
74	881
74	1012
74	1014
74	1107
74	1221
74	1224
74	3793
74	7360
74	7361
74	7362
75	81
75	665
75	1014
75	2079
75	2522
76	2048
76	2156
76	3441
76	3471
77	153
77	398
77	399
77	534
77	814
77	911
77	918
77	1025
77	1185
77	1723
77	2047
77	2106
77	2164
77	2598
77	2644
77	2649
77	2716
77	3788
77	3925
77	4359
77	5939
77	6394
77	6495
78	416
78	419
78	439
78	825
78	920
78	1212
78	1591
78	1604
78	1723
78	2227
78	2959
78	3947
78	5273
78	5931
78	7077
78	7629
79	1702
79	4271
79	6296
79	6317
80	643
80	1055
80	1136
80	1288
80	3008
80	5074
80	5224
80	6214
80	7505
80	7683
81	87
81	114
81	401
81	1583
81	1606
81	1899
81	1977
81	3031
81	7712
82	334
82	444
82	493
82	2059
82	2467
82	4801
82	5029
82	6193
82	7752
83	180
83	1887
83	2004
83	2951
83	7760
84	103
84	816
84	818
85	99
85	732
85	1368
85	1893
85	1894
85	1895
85	1898
85	1905
85	2259
85	2545
86	713
86	1893
86	5774
87	665
87	689
87	1014
87	1058
87	1107
87	1753
87	4176
88	153
88	757
88	1723
88	2716
88	2959
89	153
89	371
89	757
89	2047
89	2638
89	2716
89	3806
89	3925
89	5240
89	5822
89	7312
89	7913
90	343
90	663
90	931
90	1057
90	1704
90	1877
90	2047
90	2554
90	2598
90	3491
90	4529
90	4713
90	7641
91	1761
91	5053
91	6935
91	7137
91	7138
91	7976
92	1054
92	1141
92	1319
93	825
93	1456
93	1730
93	2881
93	2951
93	6747
94	265
94	1832
94	2100
94	2508
94	2614
94	2616
94	2619
94	2623
94	2624
94	2627
94	2636
94	4794
94	5045
94	5998
95	689
95	1055
95	1362
95	3023
95	8063
95	8064
96	650
96	887
96	1055
96	1220
97	1285
97	1312
97	1430
97	1827
97	1838
97	2268
97	4118
97	4123
98	737
98	2167
99	1887
99	1902
99	1905
99	3220
100	293
100	322
100	433
100	450
100	951
100	954
100	1044
100	1188
100	1456
100	1583
100	1606
100	1748
100	1899
100	2112
100	2416
100	2421
100	2423
100	2710
100	3374
100	4061
100	5888
100	6083
101	504
101	524
101	580
101	1588
101	2716
101	4176
101	7725
102	271
102	1114
102	1725
102	4393
103	155
103	166
103	189
103	205
103	210
103	223
103	234
103	253
103	306
103	386
103	432
103	696
103	884
103	943
103	1072
103	1171
103	1222
103	1389
103	1456
103	1559
103	1705
103	1782
103	2077
103	2161
103	2301
103	2437
103	2747
103	2791
103	2871
103	3011
103	3127
103	3135
103	3324
103	3341
103	3392
103	3399
103	3416
103	3527
103	3616
103	3837
103	3937
103	4286
103	4339
103	5002
103	5592
103	5852
103	5990
103	6917
103	6918
103	7581
103	8225
103	8226
103	8227
103	8228
103	8229
103	8230
103	8231
103	8232
103	8233
104	111
104	196
104	207
104	298
104	522
104	605
104	884
104	1089
104	1108
104	1191
104	1456
104	1521
104	1751
104	3813
104	6921
104	8245
105	1319
106	153
106	922
106	1723
106	2426
106	2716
106	6008
107	439
107	1135
108	4138
109	135
109	153
109	471
109	1637
109	1723
109	1795
109	2716
109	2959
109	3311
109	3474
109	3686
109	3687
109	3914
109	8514
111	1069
111	3041
112	2382
113	969
113	1456
113	1929
113	2433
113	2959
114	1387
114	5708
115	401
115	408
115	1503
116	135
116	153
116	827
116	1066
116	1212
116	1570
116	1637
116	1723
116	2959
116	3687
116	5445
116	6786
116	8667
117	1134
119	2625
119	8772
120	689
120	2955
120	6913
120	7250
120	7417
120	8828
121	2716
121	4633
122	396
122	2708
122	2709
122	7417
123	737
123	954
124	153
124	1723
124	2423
124	2716
124	3330
124	3795
124	3839
124	4207
125	8516
126	716
126	1723
126	2959
128	583
129	153
129	2959
130	153
130	2093
131	153
131	1723
131	2716
132	153
132	1723
132	8463
134	1723
136	740
136	3395
136	3841
136	3994
136	5400
136	6749
138	4215
142	1723
142	3966
142	4301
142	9197
143	1700
143	3572
144	1368
144	1723
144	2959
151	253
151	373
151	376
151	420
151	421
151	422
151	423
151	424
151	425
151	426
151	427
151	428
151	429
151	430
151	431
152	155
152	253
152	583
152	584
153	418
153	569
153	878
153	880
153	887
153	1662
153	1753
153	1891
153	1892
153	1893
153	1894
153	1895
153	1897
153	1898
153	1907
153	2063
153	2620
153	2918
153	2919
153	2920
153	2921
153	2922
153	2923
153	2924
153	2925
153	2926
153	2927
153	2928
153	2929
153	2930
153	2931
153	2932
153	2933
153	2934
153	2935
153	2936
153	2937
153	2938
153	2939
153	2940
154	181
154	417
154	715
154	876
154	888
154	1000
154	1018
154	1178
154	1213
154	1440
154	1516
154	2272
154	2578
154	2991
154	2992
154	2993
154	2994
154	2995
154	2996
154	2997
155	253
155	258
155	263
155	265
155	272
155	273
155	274
155	275
155	279
155	280
155	286
155	290
155	323
155	389
155	403
155	422
155	424
155	425
155	433
155	437
155	489
155	491
155	576
155	583
155	608
155	750
155	768
155	822
155	907
155	928
155	951
155	1009
155	1016
155	1210
155	1220
155	1382
155	1564
155	1684
155	1828
155	1900
155	1946
155	2065
155	2180
155	2267
155	2269
155	2431
155	2725
155	2727
155	2732
155	2761
155	2830
155	2831
155	3016
155	3178
155	3192
155	3193
155	3194
155	3195
155	3196
155	3197
155	3198
155	3199
155	3200
155	3201
155	3202
155	3203
155	3204
155	3205
155	3206
155	3207
155	3208
155	3209
155	3210
155	3211
155	3212
155	3213
155	3214
155	3215
155	3216
155	3217
155	3218
155	3219
155	3220
155	3221
155	3222
155	3223
155	3224
155	3225
155	3226
155	3227
155	3228
155	3229
156	187
156	529
156	780
156	827
156	978
156	1038
156	1675
156	1827
156	1838
156	1977
156	2562
156	2872
156	3188
156	3700
156	3790
156	3925
156	4186
156	4187
156	4188
156	4189
156	4190
156	4191
156	4192
156	4193
156	4194
156	4195
156	4196
156	4197
156	4198
156	4199
156	4200
156	4201
156	4202
156	4203
156	4204
156	4205
156	4206
157	4445
157	4447
158	328
158	1565
158	3635
158	3687
158	5062
158	5064
158	5065
158	5066
159	333
159	571
159	870
159	1075
159	3135
159	3189
159	4281
159	4400
159	4916
159	5363
159	5364
159	5365
160	386
160	533
160	620
160	642
160	1105
160	1351
160	2102
160	2182
160	2385
160	2488
160	2807
160	3240
160	4161
160	5323
160	5529
160	5537
160	5538
160	5539
160	5540
160	5541
160	5542
161	187
161	428
161	439
161	452
161	592
161	647
161	656
161	689
161	770
161	890
161	920
161	1011
161	1016
161	1019
161	1116
161	1236
161	1240
161	1305
161	1529
161	1565
161	1637
161	1657
161	1724
161	1750
161	1760
161	1852
161	2072
161	2113
161	2154
161	2193
161	2280
161	2343
161	2345
161	2432
161	2550
161	2566
161	2823
161	2850
161	2890
161	2929
161	3245
161	3259
161	3305
161	3510
161	3521
161	3576
161	3640
161	3732
161	3783
161	3786
161	3796
161	3797
161	3798
161	3801
161	3809
161	3845
161	3856
161	3862
161	3970
161	4077
161	4195
161	4637
161	4644
161	4837
161	5401
161	5404
161	5409
161	6290
161	6291
162	217
162	407
162	864
162	1975
162	2914
162	3642
162	4362
162	4887
162	4952
162	5686
162	6379
162	6380
162	6381
162	6382
162	6383
163	421
163	428
163	1639
163	1836
163	4780
163	5808
163	6392
164	620
164	1044
164	3130
164	4546
164	5534
164	6680
164	6681
164	6682
165	451
165	689
165	1341
165	2338
165	2836
165	5808
165	6403
165	6404
165	6405
165	6406
165	6727
166	952
166	2750
166	2818
166	3177
166	4328
167	2888
167	4416
167	4715
167	7021
168	979
168	1456
168	1899
168	2423
168	2708
168	3374
168	3922
168	5369
169	1758
170	1758
170	2112
170	2716
170	2959
170	6522
171	334
172	583
172	636
172	644
172	1527
172	1531
172	1640
172	1853
172	1956
172	2804
172	3009
172	3318
172	3373
172	3447
172	3451
172	3795
172	4898
172	5440
172	5882
172	7286
173	513
173	676
173	951
173	1125
173	1684
173	1798
173	3137
173	3348
173	3398
173	7332
174	254
174	415
174	827
174	1195
174	1740
174	2813
175	1102
175	1220
175	2422
175	7198
175	7323
175	7376
176	2684
177	439
177	442
177	510
177	544
177	571
177	642
177	920
177	955
177	1141
177	1686
177	1835
177	2045
177	4916
177	7606
177	7607
178	300
178	326
178	431
178	1189
178	1629
178	1655
178	1673
178	1674
178	1677
178	1689
178	3453
178	3969
178	4019
178	6025
178	6523
178	7626
178	7627
178	7628
179	196
179	303
179	1044
179	1124
179	1161
179	1189
179	2578
179	2579
179	3003
179	3374
179	3635
179	3729
179	4235
179	6447
179	6581
179	7666
179	7667
180	326
180	875
180	1297
180	1730
180	3918
180	7097
181	1315
181	2268
181	5445
182	266
182	7267
182	7299
183	930
183	1470
183	1473
183	2959
183	5509
184	198
184	3282
184	4182
184	8053
185	1315
185	1511
185	1520
185	2281
185	3567
186	3008
187	328
187	346
187	349
187	392
187	529
187	544
187	560
187	565
187	602
187	780
187	796
187	827
187	878
187	951
187	969
187	978
187	996
187	1007
187	1038
187	1049
187	1103
187	1429
187	1675
187	1740
187	1933
187	1972
187	2049
187	2112
187	2144
187	2149
187	2250
187	2580
187	2584
187	2611
187	2714
187	2763
187	2772
187	2776
187	2868
187	2967
187	3147
187	3188
187	3257
187	3287
187	3430
187	3462
187	3474
187	3482
187	3488
187	3646
187	3687
187	3700
187	3918
187	3958
187	4166
187	4187
187	4188
187	4189
187	4192
187	4193
187	4196
187	4197
187	4199
187	4200
187	4201
187	4203
187	4329
187	4352
187	4452
187	4463
187	4465
187	4469
187	4570
187	4577
187	4606
187	4728
187	5152
187	5281
187	5291
187	5348
187	5372
187	5499
187	5575
187	5619
187	5661
187	5836
187	5909
187	5990
187	6015
187	6086
187	6104
187	6120
187	6179
187	6344
187	6357
187	6551
187	6605
187	6702
187	6747
187	6964
187	6989
187	7003
187	7229
187	7583
187	7607
187	7669
187	7706
187	7801
187	7839
187	8146
187	8147
187	8148
187	8149
187	8150
187	8151
187	8152
187	8153
187	8154
187	8155
187	8156
187	8157
187	8158
187	8159
187	8160
187	8161
187	8162
187	8163
187	8164
187	8165
187	8166
187	8167
187	8168
187	8169
187	8170
187	8171
187	8172
187	8173
187	8174
187	8175
187	8176
187	8177
187	8178
187	8179
188	394
188	583
188	951
188	2823
188	6564
188	8060
188	8185
189	605
189	1252
189	1368
189	1577
189	1614
189	1804
189	3058
190	322
190	583
190	1098
190	1181
190	1573
190	1700
190	3019
190	3947
190	4079
190	4583
190	4606
190	5283
190	5285
190	7023
190	7445
190	8155
190	8294
190	8295
190	8296
191	403
191	2050
192	396
192	2313
192	2434
192	3404
192	4181
192	7652
193	388
193	1025
193	6420
193	6752
193	8384
194	1606
195	322
195	1195
195	1732
195	4529
195	5166
196	475
196	1875
196	2771
196	4257
196	6593
196	6754
197	280
197	450
197	941
197	965
197	1039
197	1188
197	1487
197	1544
197	1699
197	1726
197	2417
197	3700
197	4063
197	4147
197	5518
197	5598
197	7267
197	7299
197	7650
197	8019
197	8080
197	8445
198	336
198	3379
198	7823
198	8004
198	8480
199	4079
199	4787
200	406
200	1044
201	1642
202	254
202	401
202	408
202	1178
202	1179
202	1198
202	1413
202	1415
202	1424
202	1454
202	1587
202	1796
202	2356
202	4960
203	2955
204	2860
204	5957
204	6913
204	7417
204	8127
205	334
205	581
205	605
205	1368
205	2219
205	2573
205	5445
206	957
206	6373
207	967
207	2127
207	3566
207	3793
207	5799
207	8922
208	4150
208	8111
209	1621
209	2421
209	2524
209	8929
209	8930
209	8931
210	887
210	1621
210	4780
210	8943
211	8872
212	1028
212	1703
212	6316
213	1049
213	2709
213	4507
214	5983
215	3808
216	7594
217	723
217	2417
217	2423
217	3282
222	5061
229	3687
229	5445
232	1368
234	1201
243	451
243	4816
251	5848
252	253
252	254
252	255
252	256
252	257
253	258
253	259
253	260
253	261
253	262
253	263
253	264
253	265
253	266
253	267
253	268
253	269
253	270
253	271
253	272
253	273
253	274
253	275
253	276
253	277
253	278
253	279
253	280
253	281
253	282
253	283
253	284
253	285
253	286
253	287
253	288
253	289
254	256
254	309
254	326
254	332
254	375
254	416
254	420
254	425
254	429
254	444
254	488
254	490
254	492
254	498
254	550
254	582
254	593
254	607
254	621
254	642
254	643
254	644
254	647
254	648
254	652
254	665
254	689
254	697
254	711
254	713
254	714
254	736
254	742
254	743
254	745
254	752
254	754
254	772
254	779
254	813
254	814
254	825
254	830
254	843
254	857
254	868
254	879
254	889
254	896
254	901
254	914
254	918
254	922
254	923
254	941
254	947
254	1006
254	1019
254	1058
254	1103
254	1177
254	1192
254	1209
254	1210
254	1212
254	1227
254	1271
254	1274
254	1286
254	1314
254	1336
254	1381
254	1417
254	1418
254	1427
254	1509
254	1573
254	1615
254	1750
254	1753
254	1760
254	1822
254	1834
254	1835
254	1847
254	1949
254	1953
254	1962
254	1963
254	1970
254	1973
254	1984
254	2047
254	2062
254	2072
254	2073
254	2101
254	2103
254	2108
254	2109
254	2117
254	2118
254	2119
254	2123
254	2125
254	2132
254	2147
254	2161
254	2164
254	2166
254	2168
254	2182
254	2183
254	2196
254	2199
254	2210
254	2215
254	2248
254	2249
254	2280
254	2299
254	2305
254	2311
254	2313
254	2315
254	2316
254	2322
254	2325
254	2336
254	2337
254	2338
254	2349
254	2364
254	2378
254	2383
254	2388
254	2389
254	2390
254	2403
254	2429
254	2430
254	2431
254	2432
254	2433
254	2434
254	2435
254	2436
254	2437
254	2438
254	2439
254	2440
254	2441
254	2442
254	2443
254	2444
254	2445
254	2446
254	2447
254	2448
254	2449
254	2450
254	2451
254	2452
254	2453
254	2454
254	2455
254	2456
254	2457
254	2458
254	2459
254	2460
254	2461
254	2462
254	2463
254	2464
254	2465
254	2466
254	2467
254	2468
254	2469
254	2470
254	2471
254	2472
254	2473
254	2474
255	258
255	261
255	262
255	264
255	265
255	266
255	273
255	274
255	275
255	322
255	323
255	326
255	384
255	420
255	423
255	435
255	436
255	491
255	492
255	616
255	643
255	649
255	709
255	734
255	735
255	770
255	774
255	914
255	917
255	918
255	947
255	950
255	1009
255	1015
255	1210
255	1832
255	1833
255	2336
255	2340
255	2377
255	2378
255	2382
255	2386
255	2429
255	2430
255	2613
255	2720
255	2721
255	2722
255	2723
255	2724
255	2725
255	2726
255	2727
255	2728
255	2729
255	2730
255	2731
255	2732
255	2733
255	2734
255	2735
255	2736
255	2737
255	2738
255	2739
255	2740
255	2741
255	2742
255	2743
255	2744
255	2745
255	2746
255	2747
255	2748
255	2749
255	2750
255	2751
255	2752
255	2753
255	2754
255	2755
255	2756
255	2757
255	2758
255	2759
255	2760
256	307
256	343
256	344
256	420
256	429
256	441
256	442
256	461
256	488
256	642
256	643
256	644
256	647
256	710
256	711
256	742
256	743
256	751
256	754
256	769
256	772
256	813
256	822
256	825
256	923
256	941
256	1019
256	1072
256	1212
256	1229
256	1336
256	1747
256	1750
256	1832
256	1841
256	1853
256	1864
256	1945
256	1946
256	1953
256	1970
256	1979
256	1980
256	1992
256	2073
256	2101
256	2102
256	2103
256	2107
256	2110
256	2119
256	2132
256	2146
256	2147
256	2156
256	2162
256	2163
256	2166
256	2180
256	2182
256	2184
256	2193
256	2194
256	2207
256	2214
256	2215
256	2245
256	2258
256	2280
256	2299
256	2317
256	2318
256	2439
256	2461
256	2509
256	2519
256	2616
256	2637
256	2778
256	2795
256	3448
256	3534
256	3646
256	3649
256	3660
256	4110
256	4367
256	4985
256	4986
256	4987
256	4988
257	508
257	523
257	524
257	1454
257	1629
257	1719
257	2374
257	2602
257	3438
257	3439
257	3442
257	3685
257	3984
257	4004
257	4007
257	6432
257	8694
257	8805
257	9079
257	9080
257	9081
257	9082
257	9083
258	290
258	291
258	292
258	293
258	294
258	295
258	296
259	368
259	369
259	370
259	371
259	372
259	373
259	374
259	375
259	376
259	377
259	378
259	379
259	380
259	381
259	382
259	383
261	384
261	385
261	386
261	387
261	388
261	389
261	390
261	391
261	392
261	393
261	394
261	395
261	396
261	397
261	398
261	399
262	414
262	415
262	416
262	417
262	418
262	419
263	385
263	388
263	389
263	422
263	431
263	432
263	433
263	434
263	435
263	436
263	437
263	438
263	439
263	440
263	441
263	442
263	443
263	444
263	445
263	446
263	447
263	448
263	449
263	450
263	451
263	452
263	453
263	454
263	455
263	456
263	457
263	458
263	459
263	460
263	461
263	462
263	463
263	464
263	465
263	466
263	467
263	468
263	469
263	470
263	471
263	472
263	473
263	474
263	475
263	476
263	477
263	478
263	479
263	480
263	481
263	482
263	483
263	484
263	485
264	274
264	280
264	423
264	486
264	487
264	488
264	489
264	490
264	491
264	492
264	493
264	494
264	495
264	496
264	497
264	498
264	499
264	500
264	501
264	502
265	323
265	326
265	343
265	420
265	546
265	547
265	548
265	549
265	550
265	551
265	552
265	553
265	554
265	555
265	556
266	280
266	323
266	495
266	572
266	573
266	574
266	575
268	576
269	422
270	577
271	315
271	578
271	579
271	580
271	581
272	582
273	291
274	368
274	369
274	492
274	648
274	685
274	697
274	745
274	1227
274	2304
274	2450
274	2724
274	2813
274	2814
274	2815
274	2816
275	291
275	422
275	544
275	584
275	689
275	948
275	1014
275	1570
275	1927
275	2597
275	2815
275	3212
275	3213
275	3214
275	3276
275	3277
275	3278
275	3279
275	3280
275	3281
276	906
276	1464
276	2045
276	2073
276	2887
276	3000
276	3298
276	3299
276	3300
277	2383
277	2452
277	2683
277	3163
278	1348
278	1619
279	323
279	491
279	539
279	552
279	643
279	751
279	813
279	2550
279	2637
279	2648
279	2748
279	3273
279	3380
279	3381
279	3382
280	824
280	923
280	953
280	982
280	988
280	1163
280	1168
280	1660
280	1826
280	2104
280	2118
280	2439
280	2538
280	3094
280	3572
280	4719
280	4878
280	4879
280	4880
280	4881
280	4882
280	4883
280	4884
281	330
281	428
281	429
281	941
281	954
281	981
281	1654
281	1922
281	2012
281	2022
281	3102
281	3373
281	3804
281	4506
281	4808
281	5129
281	5309
281	5595
281	6300
281	6512
281	7446
281	7804
281	7805
281	7806
281	7807
281	7808
281	7809
282	1997
282	2101
283	415
283	429
283	430
283	433
283	434
283	439
283	444
283	607
283	651
283	655
283	1009
283	1023
283	1062
283	1067
283	1092
283	1132
283	1172
283	1192
283	1412
283	1626
283	1697
283	1823
283	1958
283	2041
283	2082
283	2312
283	2551
283	2626
283	2684
283	2732
283	2789
283	2814
283	3016
283	3069
283	3101
283	3208
283	3411
283	3611
283	3735
283	3754
283	3791
283	4645
283	4845
283	4973
283	5206
283	5243
283	5481
283	5672
283	5762
283	6042
283	6059
283	6120
283	6421
283	6943
283	7062
283	7071
283	7383
283	7463
283	7705
283	8094
283	8095
283	8096
283	8097
283	8098
283	8099
283	8100
283	8101
283	8102
283	8103
283	8104
283	8105
283	8106
283	8107
284	328
284	431
284	507
284	508
284	541
284	689
284	784
284	795
284	3453
284	3454
284	3456
284	3468
285	727
285	823
285	923
285	1051
285	1531
285	1648
285	2109
285	2120
285	2843
285	2845
285	3223
285	4122
285	4147
285	4953
285	5089
285	6016
285	7776
285	8328
285	8504
286	3212
286	3276
287	419
287	538
287	1304
287	2031
287	2072
287	2165
287	2549
287	3678
287	3806
287	4312
287	4345
287	5253
287	5380
287	5392
287	5946
287	6632
287	7245
287	8280
287	8671
287	8802
287	8803
287	8804
288	323
288	2340
288	2401
288	2621
288	2647
289	968
289	2032
289	4027
289	6570
290	343
290	368
290	388
290	434
290	676
290	824
290	1195
290	2241
290	2441
290	2452
290	2551
290	2807
290	2867
290	3106
290	3538
290	3746
290	3749
290	4520
290	4521
290	4522
290	4523
290	4524
291	583
291	588
291	1009
291	1210
291	1684
291	2721
291	2723
291	2727
291	2741
291	4170
292	766
292	993
292	1037
292	1060
292	1065
292	1115
292	1121
292	1125
292	1130
292	1165
292	1170
292	1527
292	1824
292	2279
292	2299
292	2417
292	3103
292	3145
292	4783
292	4952
292	4953
292	4954
293	875
293	993
293	1008
293	1019
293	1020
293	1051
293	1081
293	1083
293	1087
293	1090
293	1112
293	1121
293	1132
293	1167
293	1170
293	1771
293	2279
293	3102
293	3305
293	3312
293	4680
293	4849
293	6091
293	6506
293	7384
293	7385
294	296
294	550
294	665
294	745
294	1012
294	2072
294	2385
294	2441
294	2755
294	2867
294	3607
294	7318
294	7454
294	7455
294	7456
295	1191
295	1198
295	1409
295	1756
295	5599
295	7439
295	7785
295	8054
296	407
296	514
296	2755
296	2959
296	3463
296	5166
296	5818
297	298
297	299
297	300
297	301
297	302
297	303
297	304
297	305
297	306
297	307
297	308
297	309
297	310
297	311
297	312
297	313
297	314
297	315
297	316
297	317
297	318
297	319
297	320
297	321
298	302
298	322
298	323
298	324
298	325
298	326
298	327
298	328
298	329
298	330
298	331
298	332
298	333
298	334
298	335
298	336
298	337
298	338
298	339
298	340
298	341
298	342
298	343
298	344
298	345
298	346
298	347
298	348
298	349
298	350
298	351
298	352
298	353
298	354
298	355
298	356
298	357
298	358
298	359
298	360
298	361
298	362
298	363
298	364
298	365
298	366
298	367
299	400
299	401
299	402
299	403
299	404
299	405
299	406
299	407
299	408
299	409
299	410
299	411
299	412
299	413
300	302
300	324
300	325
300	328
300	334
300	342
300	346
300	347
300	407
300	503
300	504
300	505
300	506
300	507
300	508
300	509
300	510
300	511
300	512
300	513
300	514
300	515
300	516
300	517
300	518
300	519
300	520
300	521
300	522
300	523
300	524
300	525
300	526
300	527
300	528
300	529
300	530
300	531
300	532
300	533
300	534
300	535
300	536
300	537
300	538
300	539
300	540
300	541
300	542
300	543
301	544
301	545
302	340
302	361
302	557
302	558
302	559
302	560
302	561
302	562
302	563
302	564
302	565
302	566
302	567
303	325
303	568
303	569
303	570
303	571
304	326
304	586
304	587
304	607
304	608
304	609
304	610
304	611
305	586
305	618
305	619
305	620
305	621
305	622
305	623
305	624
305	625
305	626
305	627
305	628
305	629
305	630
305	631
305	632
305	633
305	634
305	635
305	636
305	637
305	638
305	639
305	640
305	641
306	347
306	2989
306	2990
307	644
307	779
307	813
307	814
307	822
307	1953
307	1983
307	1984
307	2107
307	2110
307	2342
307	2868
307	4700
307	5277
308	325
308	742
308	751
308	769
308	814
308	822
308	1417
308	1427
308	1686
308	2172
308	2446
308	5257
308	5258
309	330
309	331
309	336
309	426
309	557
309	773
309	774
309	813
309	906
309	1049
309	1210
309	1227
309	2432
309	2441
309	2716
309	5969
309	5970
310	374
310	2189
310	2205
310	2211
310	4567
310	4707
310	5421
311	1018
311	1228
311	6705
312	325
312	336
312	439
312	919
312	1006
312	1027
312	1841
312	3449
313	325
313	578
313	1006
313	3609
313	4059
313	5266
314	323
314	328
314	373
314	1286
314	1690
314	1749
314	1900
314	2526
314	3468
314	3542
314	3647
315	325
315	578
315	2867
315	3449
315	3904
315	5857
315	6705
316	325
316	1570
316	1853
316	7469
317	465
317	797
317	5881
317	7796
317	7981
318	325
319	338
319	754
319	1414
319	1915
319	2168
319	2502
319	3269
319	3274
319	3824
319	4175
319	4528
319	5312
319	6399
319	6961
319	7162
319	8711
319	8712
319	8713
319	8714
319	8715
319	8716
320	2192
320	5666
322	326
322	371
322	372
322	400
322	402
322	403
322	404
322	415
322	416
322	426
322	437
322	443
322	444
322	450
322	485
322	552
322	559
322	572
322	581
322	643
322	650
322	661
322	662
322	667
322	689
322	723
322	731
322	743
322	766
322	824
322	875
322	876
322	885
322	887
322	920
322	927
322	944
322	955
322	956
322	965
322	971
322	975
322	1000
322	1001
322	1002
322	1003
322	1004
322	1005
322	1006
322	1007
322	1008
322	1009
322	1010
322	1011
322	1012
322	1013
322	1014
322	1015
322	1016
322	1017
322	1018
322	1019
322	1020
322	1021
322	1022
322	1023
322	1024
322	1025
322	1026
322	1027
322	1028
322	1029
322	1030
322	1031
322	1032
322	1033
322	1034
322	1035
322	1036
322	1037
322	1038
322	1039
322	1040
322	1041
322	1042
322	1043
322	1044
322	1045
322	1046
322	1047
322	1048
322	1049
322	1050
322	1051
322	1052
322	1053
322	1054
322	1055
322	1056
322	1057
322	1058
322	1059
322	1060
322	1061
322	1062
322	1063
322	1064
322	1065
322	1066
322	1067
322	1068
322	1069
322	1070
322	1071
322	1072
322	1073
322	1074
322	1075
322	1076
322	1077
322	1078
322	1079
322	1080
322	1081
322	1082
322	1083
322	1084
322	1085
322	1086
322	1087
322	1088
322	1089
322	1090
322	1091
322	1092
322	1093
322	1094
322	1095
322	1096
322	1097
322	1098
322	1099
322	1100
322	1101
322	1102
322	1103
322	1104
322	1105
322	1106
322	1107
322	1108
322	1109
322	1110
322	1111
322	1112
322	1113
322	1114
322	1115
322	1116
322	1117
322	1118
322	1119
322	1120
322	1121
322	1122
322	1123
322	1124
322	1125
322	1126
322	1127
322	1128
322	1129
322	1130
322	1131
322	1132
322	1133
322	1134
322	1135
322	1136
322	1137
322	1138
322	1139
322	1140
322	1141
322	1142
322	1143
322	1144
322	1145
322	1146
322	1147
322	1148
322	1149
322	1150
322	1151
322	1152
322	1153
322	1154
322	1155
322	1156
322	1157
322	1158
322	1159
322	1160
322	1161
322	1162
322	1163
322	1164
322	1165
322	1166
322	1167
322	1168
322	1169
322	1170
322	1171
322	1172
322	1173
322	1174
322	1175
323	326
323	368
323	393
323	488
323	550
323	580
323	607
323	619
323	665
323	666
323	755
323	814
323	1004
323	1192
323	1383
323	1832
323	1846
323	1847
323	1935
323	1959
323	2125
323	2145
323	2203
323	2261
323	2291
323	2340
323	2390
323	2431
323	2434
323	2508
323	2612
323	2613
323	2614
323	2615
323	2616
323	2617
323	2618
323	2619
323	2620
323	2621
323	2622
323	2623
323	2624
323	2625
323	2626
323	2627
323	2628
323	2629
323	2630
323	2631
323	2632
323	2633
323	2634
323	2635
323	2636
323	2637
323	2638
323	2639
323	2640
323	2641
323	2642
323	2643
323	2644
323	2645
323	2646
323	2647
323	2648
323	2649
323	2650
323	2651
323	2652
323	2653
323	2654
323	2655
323	2656
323	2657
323	2658
324	361
324	512
324	559
324	659
324	1185
324	2296
324	2906
324	3432
324	3475
324	3476
324	3477
324	3478
325	335
325	506
325	541
325	3239
325	3449
325	4273
325	4274
325	4275
326	343
326	371
326	375
326	385
326	420
326	428
326	429
326	430
326	440
326	454
326	492
326	495
326	535
326	552
326	553
326	554
326	582
326	608
326	619
326	644
326	647
326	689
326	707
326	711
326	737
326	742
326	769
326	772
326	776
326	778
326	781
326	885
326	901
326	920
326	923
326	971
326	1014
326	1055
326	1062
326	1131
326	1181
326	1193
326	1244
326	1251
326	1341
326	1343
326	1345
326	1357
326	1425
326	1513
326	1615
326	1626
326	1747
326	1760
326	1791
326	1918
326	1953
326	1977
326	1984
326	2047
326	2065
326	2101
326	2136
326	2147
326	2180
326	2188
326	2219
326	2250
326	2346
326	2347
326	2349
326	2354
326	2356
326	2358
326	2377
326	2378
326	2383
326	2385
326	2387
326	2390
326	2391
326	2395
326	2398
326	2399
326	2429
326	2444
326	2461
326	2559
326	2573
326	2583
326	2601
326	2722
326	2750
326	2832
326	2867
326	2881
326	2890
326	3016
326	3244
326	3261
326	3262
326	3433
326	3488
326	3491
326	3504
326	3507
326	3509
326	3518
326	3534
326	3535
326	3536
326	3539
326	3556
326	3571
326	3576
326	3588
326	3631
326	3712
326	3734
326	3918
326	4132
326	4405
326	4577
326	4578
326	4624
326	4627
326	4653
326	4654
326	4655
326	4656
326	4657
326	4658
326	4659
326	4660
326	4661
326	4662
326	4663
326	4664
326	4665
326	4666
326	4667
326	4668
326	4669
326	4670
326	4671
326	4672
326	4673
326	4674
326	4675
326	4676
326	4677
326	4678
326	4679
326	4680
327	366
327	444
327	551
327	605
327	619
327	662
327	707
327	919
327	1007
327	1018
327	1058
327	1222
327	1228
327	1565
327	1896
327	1971
327	2047
327	2162
327	2387
327	2598
327	3271
327	3708
327	4692
327	4804
327	4840
327	5011
327	5012
327	5013
327	5014
327	5015
327	5016
327	5017
328	335
328	338
328	339
328	346
328	351
328	373
328	471
328	505
328	507
328	544
328	546
328	550
328	563
328	619
328	667
328	668
328	669
328	740
328	964
328	1049
328	1058
328	1075
328	1141
328	1160
328	1188
328	1276
328	1369
328	1454
328	1511
328	1512
328	1540
328	1565
328	1572
328	1653
328	1673
328	1724
328	1753
328	1767
328	1802
328	1834
328	1859
328	1861
328	2067
328	2078
328	2080
328	2139
328	2298
328	2307
328	2341
328	2350
328	2370
328	2433
328	2473
328	2475
328	2520
328	2526
328	2527
328	2551
328	2584
328	2650
328	2689
328	2816
328	2860
328	2882
328	3015
328	3439
328	3442
328	3578
328	3643
328	3814
328	3958
328	3961
328	3969
328	3970
328	3971
328	3979
328	3980
328	3983
328	4154
328	4168
328	4230
328	4376
328	4434
328	4709
328	4714
328	4715
328	4758
328	4759
328	4760
328	4761
328	4762
328	4763
328	4764
328	4765
328	4766
328	4767
328	4768
328	4770
328	4905
328	4908
328	5021
328	5069
328	5070
328	5072
328	5073
328	5074
328	5075
328	5076
328	5077
328	5078
328	5079
328	5080
328	5081
328	5082
328	5083
328	5084
328	5085
328	5086
328	5087
328	5088
328	5089
328	5090
328	5091
328	5092
328	5093
328	5094
328	5095
328	5096
328	5097
328	5098
328	5099
328	5100
328	5101
328	5102
328	5103
328	5104
329	444
329	551
329	614
329	619
329	707
329	823
329	919
329	1005
329	1058
329	1227
329	1946
329	1968
329	2162
329	2383
329	2387
329	2388
329	2432
329	2598
329	3271
329	3580
329	3729
329	4585
329	5011
329	5095
329	5107
329	5108
330	425
330	429
330	430
330	454
330	553
330	573
330	582
330	689
330	707
330	711
330	721
330	742
330	770
330	828
330	971
330	1012
330	1058
330	1062
330	1193
330	1195
330	1619
330	1626
330	1747
330	1753
330	1918
330	1974
330	1978
330	2072
330	2101
330	2136
330	2188
330	2250
330	2349
330	2356
330	2378
330	2379
330	2383
330	2385
330	2391
330	2392
330	2395
330	2398
330	2400
330	2409
330	2411
330	2831
330	2881
330	3433
330	3536
330	3571
330	4102
330	4132
330	4657
330	4658
330	5641
330	5644
330	5645
330	5646
330	5647
330	5648
330	5649
331	454
331	552
331	553
331	689
331	707
331	711
331	721
331	828
331	971
331	1062
331	1193
331	1418
331	1626
331	1918
331	2143
331	2188
331	2337
331	2349
331	2356
331	2378
331	2383
331	2390
331	2391
331	2393
331	2395
331	2398
331	2617
331	2618
331	2655
331	2831
331	2832
331	3262
331	3536
331	3571
331	3918
331	3931
331	4101
331	4132
331	4390
331	4657
331	5836
331	5864
331	5865
332	919
332	1018
332	1637
332	1726
332	2388
332	2554
332	3580
332	3905
332	4624
332	5014
332	5900
332	5901
332	5902
332	5903
332	5904
333	334
333	362
333	364
333	368
333	370
333	431
333	433
333	477
333	493
333	494
333	514
333	520
333	573
333	773
333	1038
333	1131
333	1153
333	1264
333	1357
333	1399
333	1419
333	1429
333	1476
333	1603
333	1604
333	1606
333	1740
333	1766
333	1901
333	2176
333	2177
333	2467
333	2480
333	2501
333	2628
333	2888
333	3135
333	3171
333	3282
333	3521
333	3635
333	3781
333	4019
333	4119
333	4122
333	4344
333	4414
333	4432
333	4520
333	4603
333	4690
333	4715
333	4900
333	4967
333	5193
333	5575
333	5748
333	5793
333	5821
333	6013
333	6014
333	6015
333	6016
333	6017
333	6018
333	6019
333	6020
333	6021
333	6022
333	6023
333	6024
333	6025
333	6026
333	6027
333	6028
333	6029
333	6030
333	6031
333	6032
333	6033
333	6034
333	6035
333	6036
333	6037
334	339
334	356
334	362
334	544
334	659
334	974
334	1049
334	1297
334	1647
334	2296
334	2660
334	3283
334	3395
334	3427
334	3430
334	3438
334	3474
334	3475
334	3693
334	3969
334	4085
334	4772
334	5230
334	5376
334	5377
334	5383
334	5489
334	5793
334	6169
334	6170
334	6171
334	6172
334	6173
334	6174
334	6175
334	6176
334	6177
334	6178
334	6179
334	6180
335	562
335	1515
335	2433
335	2860
335	3970
335	4709
335	6438
336	337
336	350
336	514
336	557
336	666
336	1012
336	1016
336	1028
336	1183
336	1260
336	2338
336	2402
336	2417
336	2421
336	2870
336	4102
336	4182
336	4836
336	5601
336	6729
337	426
337	666
337	1025
337	1195
337	1198
337	1210
337	1271
337	1412
337	1414
337	1529
337	1652
337	1690
337	1720
337	1792
337	6013
337	6547
338	557
338	784
338	1603
338	2663
338	3282
339	493
339	504
339	507
339	508
339	784
339	1655
339	2250
339	3282
340	367
340	504
340	541
340	784
340	1603
340	1674
340	3453
340	3468
340	3469
340	7143
340	7230
341	376
341	557
341	665
341	814
341	1091
341	1210
341	2911
341	3544
341	3564
341	5633
342	1209
342	1351
342	2350
342	2860
342	3970
342	4709
342	5498
343	353
343	395
343	490
343	534
343	546
343	550
343	619
343	767
343	841
343	920
343	1612
343	1615
343	1826
343	1832
343	1846
343	1864
343	2125
343	2203
343	2315
343	2465
343	2508
343	2616
343	2622
343	2624
343	2626
343	2627
343	2634
343	2636
343	2638
343	2639
343	2642
343	2643
343	2644
343	2649
343	2657
343	2826
343	2959
343	3065
343	3067
343	3369
343	3565
343	3607
343	3789
343	3911
343	4392
343	4411
343	4633
343	4713
343	4971
343	5239
343	5640
343	5763
343	5998
343	6718
343	7311
343	7615
343	7616
344	371
344	439
344	920
344	2601
344	3474
344	6872
345	504
345	557
345	2502
345	3472
345	6522
346	493
346	504
346	507
346	508
346	511
346	524
346	527
346	537
346	827
346	2663
346	3454
346	3466
346	3468
346	3469
346	5166
347	504
347	505
347	512
347	527
347	688
347	1002
347	1760
347	1923
347	2464
347	3423
347	3923
347	4506
347	6060
347	6193
347	7143
347	7650
348	1038
348	3966
348	4434
348	5053
348	5809
348	6202
348	6203
348	7609
349	689
349	2337
349	2502
349	3799
349	3805
349	6626
349	6767
349	7990
349	7991
350	557
350	932
350	1839
350	2085
350	2134
350	2870
350	3053
350	3262
350	3316
350	3466
350	5078
350	5510
350	6725
350	6730
351	367
351	505
351	507
351	510
351	527
351	1577
351	1603
351	1655
351	5095
351	5983
351	5984
351	8093
352	354
352	500
352	523
352	537
352	593
352	652
352	886
352	1005
352	2247
352	2874
352	3424
352	3442
352	3649
352	4063
352	5104
352	5534
352	5790
354	514
354	544
354	2674
354	4019
354	6084
355	1136
355	3687
359	467
359	507
359	3474
359	3687
359	3900
360	1066
360	1138
360	3970
360	6787
360	8464
360	8465
361	389
361	544
361	770
361	967
361	984
361	1013
361	2770
361	3803
361	4031
361	4085
361	4165
361	4608
361	4906
361	5653
361	6213
361	6361
361	6767
361	7206
361	8497
361	8498
362	364
362	544
362	566
362	974
362	1038
362	1645
362	1647
362	1673
362	2029
362	3335
362	3395
362	3404
362	3430
362	3474
362	3969
362	3979
362	3998
362	4746
362	5376
362	5377
362	5793
362	6021
362	6170
362	7548
362	8465
362	8532
362	8533
362	8534
363	557
363	2777
364	500
364	544
364	659
364	727
364	2373
364	2463
364	3160
364	3411
364	3635
364	3969
364	3979
364	5224
364	5793
364	6024
364	6255
364	6507
364	7580
364	8719
364	8720
365	464
365	1619
365	2814
365	7160
365	7161
365	7831
365	8783
366	384
366	385
366	391
366	760
367	504
367	1603
367	1653
367	2250
367	2480
367	6202
367	7609
367	8372
368	369
368	371
368	373
368	425
368	430
368	431
368	520
368	546
368	549
368	552
368	630
368	642
368	648
368	653
368	665
368	670
368	692
368	701
368	745
368	751
368	822
368	824
368	918
368	928
368	949
368	955
368	1004
368	1007
368	1011
368	1023
368	1055
368	1057
368	1061
368	1079
368	1082
368	1177
368	1195
368	1255
368	1306
368	1317
368	1341
368	1360
368	1388
368	1418
368	1450
368	1530
368	1537
368	1572
368	1615
368	1689
368	1719
368	1729
368	1755
368	1807
368	1822
368	1823
368	1824
368	1825
368	1826
368	1827
368	1828
368	1829
368	1830
368	1831
368	1832
368	1833
368	1834
368	1835
368	1836
368	1837
368	1838
368	1839
368	1840
368	1841
368	1842
368	1843
368	1844
368	1845
368	1846
368	1847
368	1848
368	1849
368	1850
368	1851
368	1852
368	1853
368	1854
368	1855
368	1856
368	1857
368	1858
368	1859
368	1860
368	1861
368	1862
368	1863
368	1864
368	1865
368	1866
368	1867
368	1868
368	1869
368	1870
368	1871
368	1872
368	1873
368	1874
368	1875
368	1876
368	1877
368	1878
368	1879
368	1880
368	1881
368	1882
369	373
369	433
369	547
369	550
369	620
369	621
369	643
369	644
369	770
369	813
369	930
369	949
369	1006
369	1012
369	1017
369	1036
369	1370
369	1566
369	1633
369	1745
369	1827
369	1831
369	1838
369	2041
369	2042
369	2243
369	2299
369	2478
369	2544
369	2548
369	2947
369	3009
369	3118
369	3120
369	3124
369	3125
369	3126
369	3127
369	3128
369	3129
369	3130
369	3131
369	3132
369	3133
369	3134
369	3135
369	3136
369	3137
369	3138
369	3139
369	3140
369	3141
369	3142
369	3143
369	3144
369	3145
369	3146
369	3147
369	3148
369	3149
369	3150
369	3151
369	3152
369	3153
369	3154
369	3155
369	3156
369	3157
369	3158
369	3159
369	3160
369	3161
370	372
370	420
370	755
370	824
370	1023
370	1054
370	1306
370	1360
370	1392
370	1530
370	1827
370	1828
370	1838
370	1839
370	1840
370	1852
370	1863
370	2667
370	3016
370	3685
370	3898
370	4071
370	4072
370	4073
370	4074
370	4075
370	4076
371	372
371	373
371	446
371	490
371	509
371	560
371	581
371	660
371	661
371	701
371	872
371	920
371	922
371	1005
371	1017
371	1028
371	1034
371	1049
371	1054
371	1097
371	1342
371	1470
371	1591
371	1650
371	1827
371	1839
371	2047
371	2172
371	2273
371	2550
371	2552
371	2944
371	3105
371	3159
371	3291
371	3565
371	3774
371	3808
371	4076
371	4077
371	4078
371	4079
371	4080
371	4081
371	4082
371	4083
371	4084
371	4085
371	4086
371	4087
371	4088
371	4089
371	4090
371	4091
371	4092
371	4093
371	4094
371	4095
371	4096
371	4097
371	4098
371	4099
371	4100
372	373
372	409
372	446
372	509
372	547
372	560
372	581
372	661
372	723
372	1342
372	1388
372	1470
372	1572
372	1591
372	1650
372	1708
372	1827
372	1838
372	1839
372	1851
372	2143
372	2146
372	2550
372	2552
372	2767
372	2814
372	3105
372	3291
372	3292
372	3808
372	4076
372	4077
372	4082
372	4083
372	4088
372	4089
372	4090
372	4091
372	4092
372	4093
372	4095
372	4096
372	4099
372	4141
372	4142
372	4143
372	4144
373	400
373	431
373	497
373	554
373	668
373	751
373	755
373	781
373	869
373	884
373	949
373	1004
373	1058
373	1177
373	1195
373	1286
373	1341
373	1435
373	1513
373	1572
373	1615
373	1724
373	1751
373	1753
373	1827
373	1828
373	1829
373	1834
373	1838
373	1839
373	1841
373	1851
373	1852
373	1853
373	1855
373	1867
373	1881
373	2078
373	2526
373	3219
373	3373
373	4071
373	4072
373	4097
373	4151
373	4152
373	4153
373	4154
373	4155
373	4156
373	4157
373	4158
373	4159
373	4160
374	427
374	621
374	721
374	781
374	1510
374	1637
374	1958
374	1960
374	2071
374	2145
374	2510
374	2687
374	2716
374	2777
374	2867
374	3244
374	3314
374	3961
374	4302
374	4319
374	4320
374	4321
374	4324
374	4489
374	4567
374	4568
374	4569
374	5211
374	5435
374	5436
374	5437
374	5438
374	5439
375	825
375	1468
375	1680
375	1725
375	1958
375	2211
375	3939
375	4272
375	4312
375	4550
375	4567
375	4941
375	5440
375	5910
376	608
376	746
376	747
376	830
376	1568
376	1641
376	1826
376	1858
376	2142
376	2401
376	3173
376	3240
376	3242
376	3245
376	3246
376	3249
376	5896
377	933
377	1015
377	2059
378	583
378	800
378	942
378	1981
379	535
379	2842
379	5125
379	7158
379	8401
380	535
380	1442
380	3221
380	4362
380	5958
380	7157
380	8433
381	382
382	8526
384	391
384	456
384	458
384	488
384	608
384	664
384	683
384	711
384	712
384	714
384	722
384	731
384	750
384	753
384	755
384	765
384	767
384	769
384	770
384	771
384	772
384	773
384	774
384	775
384	776
384	777
384	778
384	779
384	780
384	781
384	782
384	783
384	784
384	785
384	786
384	787
384	788
384	789
384	790
384	791
384	792
384	793
384	794
384	795
384	796
384	797
384	798
384	799
384	800
384	801
384	802
384	803
384	804
384	805
384	806
384	807
384	808
384	809
384	810
384	811
384	812
385	391
385	394
385	440
385	455
385	456
385	601
385	621
385	663
385	664
385	683
385	697
385	711
385	712
385	714
385	721
385	750
385	751
385	753
385	754
385	756
385	759
385	763
385	765
385	767
385	772
385	773
385	775
385	776
385	778
385	779
385	780
385	782
385	784
385	785
385	786
385	787
385	788
385	789
385	791
385	792
385	795
385	796
385	797
385	798
385	799
385	800
385	801
385	802
385	803
385	804
385	805
385	808
385	810
385	817
385	821
385	822
385	823
385	824
385	825
385	826
385	827
385	828
385	829
385	830
385	831
385	832
385	833
385	834
385	835
385	836
385	837
385	838
385	839
385	840
385	841
385	842
385	843
385	844
385	845
385	846
385	847
385	848
385	849
385	850
385	851
385	852
385	853
385	854
385	855
386	683
386	689
386	841
386	856
386	857
386	858
386	859
386	860
386	861
386	862
386	863
386	864
386	865
386	866
386	867
387	548
387	919
387	1222
387	1868
387	2762
387	3447
387	3449
387	3658
387	3686
387	3951
387	3952
387	3953
387	3954
387	3955
387	3956
388	429
388	434
388	602
388	663
388	689
388	755
388	796
388	824
388	1014
388	1073
388	1564
388	1619
388	1652
388	1828
388	1832
388	1992
388	2337
388	2511
388	2625
388	2821
388	2899
388	2902
388	3071
388	3203
388	3211
388	3218
388	3631
388	3929
388	4101
388	4525
388	4526
388	4527
388	4528
388	4529
388	4530
388	4531
389	390
389	392
389	395
389	547
389	661
389	1012
389	2347
389	2625
389	2770
389	3069
389	3609
389	3612
389	4170
389	4529
389	4659
389	4836
389	4837
389	4838
390	1024
390	1609
390	3432
390	4604
390	5507
390	5508
391	440
391	456
391	664
391	711
391	712
391	721
391	759
391	772
391	773
391	775
391	776
391	779
391	780
391	785
391	788
391	789
391	792
391	794
391	795
391	796
391	797
391	798
391	801
391	802
391	804
391	808
391	828
391	840
391	845
391	1940
391	3591
391	6069
392	1323
392	1609
392	1702
392	2770
392	3069
392	3432
392	4165
392	4181
392	4604
392	4837
392	5507
392	5508
392	6295
392	6324
392	6325
392	6326
392	6327
393	397
393	420
393	473
393	509
393	648
393	689
393	751
393	755
393	770
393	948
393	999
393	1073
393	1081
393	1197
393	1652
393	1828
393	1832
393	1953
393	1992
393	2315
393	2683
393	2814
393	2888
393	2899
393	2950
393	3203
393	3211
393	3387
393	3505
393	3806
393	3929
393	4101
393	4526
393	4528
393	4802
393	4859
393	5224
393	5480
393	5949
393	6417
393	6418
393	6419
393	6420
393	6421
393	6422
394	457
394	461
394	609
394	611
394	926
394	1686
394	2076
394	2685
394	4493
394	5499
394	7490
394	7491
394	7492
395	1941
395	2065
395	2261
395	2392
395	3591
395	4853
395	5341
395	6573
395	7859
396	574
396	1459
396	2075
396	2344
396	2708
396	2709
396	2906
396	3000
396	3010
396	3057
396	3404
396	4500
396	4506
396	4507
396	4511
396	4808
396	5051
396	7372
396	7417
396	7764
396	8368
396	8369
396	8370
397	986
399	544
399	5804
400	409
400	431
400	450
400	540
400	766
400	824
400	869
400	934
400	940
400	941
400	943
400	944
400	945
400	946
400	947
400	948
400	949
400	950
400	951
400	952
400	953
400	954
400	955
400	956
400	957
400	958
400	959
400	960
400	961
400	962
400	963
400	964
400	965
400	966
400	967
400	968
400	969
400	970
400	971
400	972
400	973
400	974
400	975
400	976
400	977
400	978
400	979
400	980
400	981
400	982
400	983
400	984
400	985
400	986
400	987
400	988
400	989
400	990
400	991
400	992
400	993
400	994
400	995
400	996
400	997
400	998
400	999
401	402
401	406
401	408
401	410
401	411
401	443
401	444
401	448
401	886
401	903
401	927
401	957
401	963
401	1000
401	1002
401	1007
401	1018
401	1024
401	1036
401	1053
401	1062
401	1067
401	1116
401	1178
401	1188
401	1189
401	1191
401	1192
401	1195
401	1198
401	1204
401	1228
401	1231
401	1233
401	1239
401	1252
401	1255
401	1272
401	1316
401	1330
401	1409
401	1411
401	1424
401	1429
401	1430
401	1439
401	1440
401	1446
401	1450
401	1451
401	1452
401	1453
401	1454
401	1455
401	1456
401	1457
401	1458
401	1459
401	1460
401	1461
401	1462
401	1463
401	1464
401	1465
401	1466
401	1467
401	1468
401	1469
401	1470
401	1471
401	1472
401	1473
401	1474
401	1475
401	1476
401	1477
401	1478
401	1479
401	1480
401	1481
401	1482
401	1483
401	1484
401	1485
401	1486
401	1487
401	1488
401	1489
401	1490
401	1491
401	1492
401	1493
401	1494
401	1495
401	1496
401	1497
401	1498
401	1499
401	1500
401	1501
401	1502
401	1503
401	1504
402	406
402	408
402	412
402	824
402	902
402	963
402	1000
402	1067
402	1116
402	1176
402	1188
402	1204
402	1239
402	1255
402	1330
402	1386
402	1413
402	1415
402	1419
402	1426
402	1429
402	1439
402	1440
402	1441
402	1456
402	1457
402	1472
402	1475
402	1480
402	1482
402	1483
402	1488
402	1489
402	1490
402	1491
402	1501
402	1520
402	1624
402	1625
402	1626
402	1627
402	1628
402	1629
402	1630
402	1631
402	1632
403	415
403	458
403	888
403	889
403	961
403	1067
403	1103
403	1125
403	1134
403	1195
403	1231
403	1249
403	1274
403	1334
403	1453
403	1467
403	1577
403	1624
403	1709
403	1775
403	1777
403	1996
403	2339
403	2586
403	3348
403	3349
403	3350
403	3351
403	3352
403	3353
403	3354
404	405
404	415
404	458
404	652
404	824
404	878
404	888
404	1007
404	1022
404	1050
404	1055
404	1080
404	1147
404	1148
404	1191
404	1195
404	1197
404	1213
404	1230
404	1233
404	1235
404	1242
404	1244
404	1247
404	1249
404	1282
404	1291
404	1325
404	1410
404	1412
404	1484
404	1528
404	1575
404	1579
404	1589
404	1702
404	1731
404	1754
404	1756
404	1794
404	2054
404	2272
404	2279
404	2496
404	2587
404	3011
404	3021
404	3043
404	3374
404	3398
404	3434
404	3507
404	4459
404	4905
404	5130
404	5672
404	5705
404	5706
404	5707
404	5708
404	5709
404	5710
404	5711
404	5712
404	5713
404	5714
404	5715
404	5716
404	5717
404	5718
404	5719
404	5720
404	5721
404	5722
405	880
405	1106
405	1184
405	1191
405	1213
405	1220
405	1233
405	1235
405	1249
405	1325
405	1389
405	1428
405	1575
405	1702
405	1731
405	1756
405	2270
405	2272
405	2414
405	2492
405	2587
405	3011
405	3047
405	3568
405	5089
405	5672
405	5716
405	5724
406	407
406	408
406	440
406	824
406	1056
406	1195
406	1316
406	1358
406	1439
406	1454
406	1472
406	1496
406	1619
406	2575
406	2577
406	2580
406	2870
406	3033
406	3799
406	4661
406	6266
406	6353
406	6354
406	6355
407	409
407	1031
407	1039
407	1049
407	1195
407	1458
407	1497
407	2525
407	2888
407	5498
407	6131
408	412
408	443
408	448
408	887
408	927
408	1000
408	1002
408	1018
408	1062
408	1116
408	1176
408	1184
408	1191
408	1192
408	1204
408	1228
408	1239
408	1252
408	1255
408	1330
408	1403
408	1421
408	1424
408	1426
408	1436
408	1437
408	1456
408	1457
408	1460
408	1463
408	1464
408	1465
408	1474
408	1478
408	1483
408	1487
408	1488
408	1489
408	1490
408	1491
408	1495
408	1569
408	1626
408	1708
408	1715
408	3566
408	6370
408	6371
408	6372
408	6373
408	6374
409	412
409	922
409	3967
410	412
410	1176
410	1188
410	1439
410	1456
410	1628
410	1629
410	5197
411	1136
411	1743
411	2077
411	4812
411	5053
412	413
412	1453
412	3967
412	4587
413	3967
414	415
414	869
414	878
414	880
414	920
414	966
414	1000
414	1147
414	1148
414	1181
414	1184
414	1411
414	1573
414	1574
414	1575
414	1576
414	1577
414	1578
414	1579
414	1580
414	1581
415	416
415	417
415	418
415	490
415	661
415	705
415	715
415	869
415	879
415	889
415	915
415	920
415	928
415	956
415	961
415	966
415	1007
415	1029
415	1044
415	1066
415	1082
415	1103
415	1178
415	1179
415	1188
415	1191
415	1192
415	1208
415	1213
415	1271
415	1274
415	1275
415	1283
415	1284
415	1353
415	1409
415	1410
415	1411
415	1417
415	1427
415	1454
415	1589
415	1591
415	1624
415	1748
415	2041
415	2042
415	2043
415	2044
415	2045
415	2046
415	2047
415	2048
415	2049
415	2050
415	2051
415	2052
415	2053
415	2054
415	2055
415	2056
415	2057
415	2058
415	2059
415	2060
415	2061
415	2062
415	2063
415	2064
416	417
416	439
416	440
416	665
416	668
416	825
416	876
416	888
416	915
416	1004
416	1018
416	1058
416	1082
416	1192
416	1197
416	1228
416	1286
416	1296
416	1425
416	1429
416	1512
416	1515
416	1570
416	1657
416	1727
416	1729
416	1753
416	1760
416	1767
416	1997
416	2047
416	2058
416	2065
416	2066
416	2067
416	2068
416	2069
416	2070
416	2071
416	2072
416	2073
416	2074
416	2075
416	2076
416	2077
416	2078
416	2079
416	2080
416	2081
416	2082
416	2083
416	2084
416	2085
416	2086
416	2087
416	2088
416	2089
416	2090
416	2091
416	2092
416	2093
416	2094
416	2095
416	2096
416	2097
417	888
417	920
417	1004
417	1760
417	2082
417	2532
417	2993
417	3662
417	3664
417	5273
418	1018
418	1962
418	2262
418	2716
418	3060
418	5072
418	5565
418	6834
419	956
419	1198
419	1364
419	2047
419	2520
419	2819
419	6095
419	7629
419	7795
420	433
420	449
420	489
420	490
420	493
420	514
420	550
420	593
420	607
420	608
420	642
420	644
420	647
420	668
420	697
420	722
420	742
420	743
420	744
420	770
420	775
420	783
420	813
420	814
420	815
420	822
420	824
420	825
420	827
420	915
420	917
420	953
420	990
420	1014
420	1025
420	1098
420	1192
420	1210
420	1270
420	1338
420	1341
420	1352
420	1417
420	1427
420	1513
420	1617
420	1636
420	1686
420	1725
420	1829
420	1832
420	1835
420	1837
420	1938
420	1950
420	1962
420	1970
420	1984
420	2048
420	2078
420	2102
420	2105
420	2133
420	2134
420	2142
420	2149
420	2162
420	2164
420	2168
420	2180
420	2183
420	2208
420	2222
420	2243
420	2244
420	2245
420	2246
420	2247
420	2258
420	2259
420	2280
420	2303
420	2305
420	2336
420	2430
420	2440
420	2447
420	2451
420	2452
420	2508
420	2532
420	2545
420	2546
420	2547
420	2597
420	2616
420	2637
420	2661
420	2683
420	2698
420	2776
420	2777
420	2778
420	2779
420	2780
420	2781
420	2782
420	2783
420	2784
420	2785
420	2786
420	2787
420	2788
420	2789
420	2790
420	2791
420	2792
420	2793
420	2794
420	2795
420	2796
420	2797
420	2798
420	2799
420	2800
420	2801
420	2802
420	2803
420	2804
420	2805
420	2806
420	2807
420	2808
420	2809
420	2810
420	2811
420	2812
421	427
421	428
421	682
421	685
421	1341
421	1621
421	2336
421	2834
421	2835
421	2836
422	488
422	608
422	685
422	708
422	723
422	734
422	856
422	914
422	1008
422	2098
422	2377
422	2378
422	2429
422	2510
422	2721
422	2725
422	2726
422	3192
422	3193
422	3230
422	3231
422	3232
422	3233
422	3234
422	3235
422	3236
422	3237
423	1825
423	2118
423	2458
423	2523
423	2742
423	2762
423	2892
423	3380
424	490
424	721
424	751
424	813
424	828
424	2759
424	2902
424	3129
424	3609
424	4101
424	4103
424	4839
425	502
425	592
425	721
425	723
425	750
425	770
425	771
425	828
425	844
425	934
425	1709
425	2118
425	2202
425	2411
425	2439
425	2458
425	2523
425	2579
425	2728
425	2762
425	2769
425	2852
425	2889
425	3255
425	3380
425	3734
425	4889
425	4890
426	430
426	431
426	432
426	437
426	580
426	643
426	692
426	751
426	822
426	873
426	901
426	944
426	1010
426	1011
426	1018
426	1021
426	1032
426	1036
426	1040
426	1041
426	1049
426	1052
426	1062
426	1065
426	1068
426	1069
426	1070
426	1174
426	1188
426	1195
426	1197
426	1211
426	1212
426	1236
426	1244
426	1245
426	1248
426	1255
426	1341
426	1451
426	1587
426	1588
426	1606
426	1640
426	1690
426	1712
426	1719
426	1721
426	1729
426	1730
426	1752
426	1789
426	1796
426	1798
426	1799
426	1828
426	1843
426	1844
426	1951
426	1962
426	1972
426	1996
426	1998
426	2048
426	2164
426	2348
426	2355
426	2523
426	2602
426	2781
426	2845
426	2846
426	2891
426	3016
426	3245
426	3450
426	3453
426	3501
426	3565
426	3572
426	3610
426	4084
426	4405
426	4525
426	4661
426	4794
426	4809
426	4913
426	4928
426	4955
426	4956
426	4957
426	4958
426	4959
426	4960
426	4961
426	4962
426	4963
426	4964
426	4965
426	4966
426	4967
426	4968
426	4969
426	4970
426	4971
426	4972
427	428
427	745
427	813
427	1210
427	1531
427	1917
427	2404
427	2442
427	2777
427	2867
427	3942
427	4414
427	5205
427	5206
427	5207
428	431
428	544
428	642
428	644
428	743
428	751
428	813
428	817
428	825
428	1210
428	2337
428	4826
428	5208
428	5209
429	508
429	607
429	654
429	681
429	711
429	751
429	906
429	914
429	923
429	944
429	951
429	971
429	992
429	1192
429	1195
429	1210
429	1512
429	1685
429	1712
429	1719
429	1835
429	1943
429	1947
429	1973
429	1974
429	1978
429	1988
429	2122
429	2147
429	2159
429	2163
429	2280
429	2379
429	2385
429	2425
429	2516
429	2660
429	2867
429	3363
429	3526
429	3592
429	3680
429	3922
429	4042
429	5018
429	5425
429	5426
429	5427
429	5428
430	949
430	1210
430	1842
430	3016
430	3029
430	3807
430	4830
430	4831
430	5483
430	5799
430	6810
431	450
431	490
431	515
431	534
431	546
431	567
431	716
431	723
431	725
431	901
431	934
431	940
431	945
431	946
431	949
431	954
431	955
431	959
431	961
431	962
431	964
431	966
431	968
431	970
431	971
431	972
431	977
431	981
431	984
431	986
431	988
431	989
431	991
431	992
431	993
431	995
431	1014
431	1044
431	1159
431	1240
431	1360
431	1383
431	1388
431	1418
431	1456
431	1505
431	1758
431	1826
431	1836
431	1847
431	2012
431	2031
431	2161
431	2313
431	2416
431	2417
431	2421
431	2439
431	2464
431	2480
431	2695
431	2835
431	2836
431	2842
431	2876
431	2895
431	3374
431	3437
431	3439
431	3442
431	3586
431	3929
431	3961
431	3970
431	3975
431	3984
431	4004
431	4070
431	4147
431	4178
431	4523
431	5380
431	5598
431	5673
431	6185
431	6195
431	6264
431	6498
431	6513
431	6853
431	6854
431	6855
431	6856
431	6857
431	6858
431	6859
431	6860
431	6861
431	6862
432	491
432	743
432	839
432	844
432	947
432	1125
432	1507
432	1531
432	1832
432	1946
432	1968
432	2073
432	2435
432	2714
432	2804
432	2882
432	3348
432	4231
432	4233
432	4234
432	4235
433	544
433	547
433	764
433	824
433	1036
433	1065
433	1083
433	1090
433	1121
433	1132
433	1171
433	1311
433	1510
433	1570
433	1643
433	1684
433	1951
433	2180
433	2434
433	2713
433	3520
433	3611
433	3631
433	3684
433	4323
433	4345
433	4346
433	4347
433	4348
433	4349
433	4350
434	1684
434	2180
434	2708
434	4499
434	4515
435	906
435	915
435	4756
435	4757
436	824
436	919
436	2788
436	3373
436	3524
437	534
437	1005
437	1049
437	1371
437	1868
437	2108
437	2434
437	2476
437	3146
437	3221
437	3686
437	4209
437	4211
437	4885
437	4886
437	4887
437	4888
438	532
438	1340
438	1823
438	2510
438	2825
438	3258
438	3597
438	5267
438	5268
438	5269
439	454
439	503
439	689
439	920
439	948
439	967
439	1051
439	1136
439	1195
439	1198
439	1249
439	1591
439	1686
439	1756
439	1828
439	1971
439	1972
439	2047
439	2068
439	2071
439	2520
439	2788
439	3169
439	3291
439	3380
439	3627
439	3835
439	3920
439	4285
439	4516
439	5467
439	5469
439	5477
439	5478
439	5479
439	5480
439	5481
439	5482
440	460
440	490
440	588
440	722
440	779
440	826
440	1311
440	1984
440	2300
440	2790
440	3520
440	3724
440	4295
440	4652
440	5020
440	5067
440	5661
440	5776
440	5777
440	5778
441	514
441	644
441	742
441	751
441	1917
441	2011
441	2150
441	2164
441	2243
441	2251
441	2310
441	2341
441	2637
441	3661
441	4693
441	5223
441	5228
441	5785
442	550
442	643
442	644
442	742
442	754
442	813
442	814
442	1005
442	1467
442	1835
442	1917
442	2011
442	2143
442	2146
442	2150
442	2164
442	2243
442	2244
442	2248
442	2310
442	2341
442	2462
442	3661
442	3737
442	5228
442	5952
442	5953
443	813
443	1099
443	1101
443	1239
443	2233
443	4126
443	5981
443	5982
444	592
444	677
444	723
444	769
444	814
444	869
444	942
444	1004
444	1008
444	1018
444	1058
444	1178
444	1191
444	1198
444	1250
444	1265
444	1286
444	1409
444	1657
444	1686
444	1697
444	1700
444	1748
444	1753
444	1756
444	1767
444	1776
444	1990
444	2043
444	2092
444	2164
444	2223
444	2235
444	2237
444	2420
444	2434
444	2920
444	2933
444	3019
444	3196
444	3303
444	3438
444	3574
444	3620
444	4215
444	5284
444	6281
444	6282
444	6283
444	6284
445	475
445	491
445	538
445	552
445	645
445	766
445	961
445	978
445	1055
445	1065
445	1081
445	1083
445	1090
445	1112
445	1113
445	1119
445	1120
445	1121
445	1125
445	1132
445	1165
445	1513
445	1608
445	1642
445	1644
445	1824
445	1920
445	2628
445	2753
445	2954
445	3102
445	3306
445	3392
445	3408
445	3566
445	3729
445	4159
445	4604
445	4812
445	4816
445	5249
445	6039
445	6044
445	6092
445	6181
445	6505
445	6506
445	6507
445	6508
445	6509
446	661
446	662
446	665
446	667
446	1807
446	2337
446	2814
446	5843
446	6719
447	2767
447	3292
447	7065
448	1002
448	1055
448	1066
448	1189
448	1195
448	1252
448	1451
448	1462
448	1463
448	1569
448	1574
449	490
449	5226
449	5934
449	6320
450	544
450	766
450	946
450	963
450	1018
450	1031
450	1083
450	1125
450	1130
450	1132
450	1163
450	1171
450	1384
450	1486
450	1507
450	1647
450	1660
450	1666
450	1824
450	2279
450	3780
450	4858
450	5638
450	6089
450	6137
450	6138
450	6182
450	7381
450	7382
450	7383
451	689
451	968
451	1014
451	1032
451	1858
451	2034
451	2048
451	2093
451	5089
451	5578
451	5887
451	5974
451	6377
451	7402
451	7403
451	7404
451	7405
451	7406
452	745
452	751
452	1197
452	1532
452	1687
452	1691
452	2888
452	3505
453	5477
454	495
454	587
454	611
454	755
454	792
454	915
454	941
454	2317
454	2682
454	3257
454	3263
454	3469
454	3556
454	3910
454	4287
454	4654
454	5211
454	6610
454	7511
454	7512
454	7513
455	711
455	721
455	772
455	6369
456	712
456	750
456	772
456	812
456	826
456	836
456	839
456	844
456	2870
456	4356
456	6443
457	3966
457	4709
458	758
458	970
458	1105
458	1225
458	1337
458	1362
458	1526
458	1677
458	2059
458	2288
458	2639
458	2850
458	5528
458	6205
458	6867
458	7756
458	7757
458	7758
458	7759
460	1221
460	2790
460	4603
460	7871
461	644
461	1005
461	1515
461	2164
461	2251
461	2341
461	3661
461	3971
461	5228
461	5785
462	1179
462	1274
462	1887
462	2433
462	6152
463	934
463	1642
463	3288
463	6443
463	6810
463	7117
463	7815
464	2625
464	3142
464	3845
464	6443
464	7334
465	655
465	2708
465	5881
466	3018
466	5009
466	5151
466	8058
467	1451
467	3900
469	5226
471	590
471	731
471	2094
471	2433
471	4491
471	6935
471	8353
472	967
472	1073
472	2377
472	5089
472	6445
472	7044
472	7046
473	491
473	2892
473	4169
473	4195
473	6443
473	8528
473	8529
474	1353
474	6680
474	7834
474	8641
475	712
475	755
475	943
475	1036
475	1671
475	3108
475	5276
475	8650
475	8651
475	8652
476	689
476	860
477	4637
477	5633
478	966
480	7782
481	3436
482	654
482	8817
485	1456
486	682
486	2862
486	2864
486	2865
487	502
487	544
487	605
487	682
487	907
487	1832
487	2213
487	2616
487	2725
487	2891
487	2892
487	2893
487	2894
487	2895
488	498
488	552
488	737
488	751
488	813
488	814
488	1018
488	1228
488	1258
488	1747
488	1833
488	1946
488	1989
488	2098
488	2107
488	2156
488	2315
488	2432
488	2637
488	3216
488	3271
488	3272
488	3273
488	3274
489	491
489	2639
489	3432
490	578
490	621
490	653
490	655
490	737
490	769
490	781
490	785
490	795
490	901
490	1001
490	1012
490	1013
490	1014
490	1134
490	1191
490	1227
490	1238
490	1244
490	1251
490	1327
490	1343
490	1350
490	1357
490	1363
490	1409
490	1412
490	1467
490	1523
490	1610
490	1657
490	1725
490	1823
490	1825
490	1827
490	1869
490	1943
490	1972
490	2047
490	2072
490	2219
490	2257
490	2340
490	2343
490	2347
490	2360
490	2361
490	2366
490	2380
490	2383
490	2392
490	2394
490	2395
490	2439
490	2444
490	2550
490	2559
490	2573
490	2582
490	2583
490	2602
490	2649
490	2678
490	2722
490	2832
490	2836
490	2841
490	2844
490	2870
490	2981
490	3074
490	3192
490	3243
490	3244
490	3433
490	3465
490	3493
490	3504
490	3508
490	3525
490	3530
490	3535
490	3553
490	3556
490	3557
490	3558
490	3559
490	3560
490	3561
490	3562
490	3563
490	3564
490	3565
490	3566
490	3567
490	3568
490	3569
490	3570
490	3571
490	3572
490	3573
490	3574
490	3575
490	3576
490	3577
490	3578
490	3579
490	3580
490	3581
490	3582
490	3583
490	3584
490	3585
490	3586
490	3587
490	3588
490	3589
490	3590
490	3591
490	3592
490	3593
490	3594
490	3595
490	3596
490	3597
490	3598
490	3599
490	3600
490	3601
490	3602
490	3603
490	3604
490	3605
491	499
491	814
491	911
491	954
491	1606
491	2066
491	2112
491	2421
491	2641
491	2892
491	3272
491	3940
491	4063
491	4278
491	4718
491	4719
492	649
492	682
492	710
492	720
492	743
492	745
492	768
492	771
492	919
492	981
492	2161
492	2467
492	2731
492	2743
492	4356
492	4358
492	4729
493	528
493	620
493	643
493	644
493	1038
493	1188
493	1210
493	1243
493	1440
493	1603
493	1779
493	1926
493	2031
493	2244
493	2307
493	2406
493	2534
493	2683
493	2689
493	2725
493	2880
493	3323
493	3339
493	3424
493	3427
493	3430
493	3474
493	3724
493	3899
493	3968
493	4002
493	4085
493	4112
493	4400
493	4711
493	5078
493	5193
493	5230
493	5249
493	5365
493	5366
493	5367
493	5368
493	5369
493	5370
493	5371
493	5372
493	5373
493	5374
493	5375
493	5376
493	5377
493	5378
493	5379
493	5380
493	5381
493	5382
493	5383
493	5384
493	5385
493	5386
493	5387
493	5388
493	5389
493	5390
494	736
494	1017
494	1023
494	1141
494	1835
494	1949
494	2135
494	2250
494	2365
494	3277
494	3687
494	4085
494	5372
494	5444
494	5446
494	5447
494	5448
495	529
495	536
495	961
495	1381
495	1399
495	1874
495	2047
495	2347
495	2725
495	3244
495	3488
495	3508
495	3534
495	3565
495	3602
495	3607
495	4085
495	5592
495	5593
495	5594
495	5595
496	3588
497	568
497	1018
497	2173
497	2526
497	3024
497	3970
497	4077
497	5443
497	6612
498	647
498	648
498	751
498	2107
498	2116
498	2118
498	2192
498	2196
498	2247
498	2892
499	1467
499	2118
500	692
500	2599
500	2674
500	3693
500	3970
500	5793
502	682
502	1537
502	2118
502	2731
502	2892
502	8375
502	9112
503	682
503	2859
503	2860
503	2861
503	2862
503	2863
504	506
504	512
504	515
504	517
504	525
504	536
504	541
504	546
504	558
504	560
504	563
504	565
504	566
504	571
504	740
504	863
504	1045
504	1188
504	1341
504	1454
504	1469
504	1655
504	1673
504	1719
504	1802
504	1925
504	2057
504	2251
504	2344
504	2417
504	2430
504	2695
504	2733
504	2792
504	2860
504	2934
504	3015
504	3395
504	3400
504	3437
504	3439
504	3442
504	3444
504	3479
504	3899
504	3926
504	3927
504	3945
504	3957
504	3958
504	3959
504	3960
504	3961
504	3962
504	3963
504	3964
504	3965
504	3966
504	3967
504	3968
504	3969
504	3970
504	3971
504	3972
504	3973
504	3974
504	3975
504	3976
504	3977
504	3978
504	3979
504	3980
504	3981
504	3982
504	3983
504	3984
504	3985
504	3986
504	3987
504	3988
504	3989
504	3990
504	3991
504	3992
504	3993
504	3994
504	3995
504	3996
504	3997
504	3998
504	3999
504	4000
504	4001
504	4002
504	4003
504	4004
504	4005
504	4006
504	4007
504	4008
504	4009
504	4010
504	4011
504	4012
504	4013
504	4014
504	4015
504	4016
504	4017
504	4018
504	4019
504	4020
504	4021
504	4022
504	4023
504	4024
504	4025
504	4026
504	4027
504	4028
504	4029
505	558
505	686
505	918
505	1126
505	1741
505	1802
505	1834
505	2433
505	3257
505	3439
505	3442
505	3959
505	3961
505	3962
505	3973
505	4708
505	4709
505	4710
505	4711
505	4712
505	4713
505	4714
506	512
506	813
506	1016
506	1018
506	1049
506	1228
506	1702
506	2241
506	2944
506	3922
506	3960
506	3964
506	4291
506	5230
506	5231
507	522
507	545
507	558
507	644
507	653
507	1002
507	1156
507	1673
507	1802
507	2057
507	2480
507	2694
507	2695
507	2707
507	2860
507	2906
507	3474
507	3496
507	3687
507	3899
507	3958
507	3961
507	3974
507	3980
507	3991
507	3992
507	3993
507	3996
507	4713
507	5050
507	5375
507	6121
507	6175
507	6176
507	6206
507	6207
507	6208
507	6209
507	6210
507	6211
507	6212
508	658
508	766
508	1049
508	1862
508	2350
508	2695
508	2829
508	2860
508	3103
508	3290
508	3395
508	3470
508	3970
508	4010
508	4494
508	4783
508	4809
508	5380
508	5410
508	5616
508	6172
508	6242
508	6243
508	6244
508	6245
508	6246
508	6247
509	531
509	1357
509	2421
509	2465
509	3365
509	3461
509	3966
509	4292
509	4434
509	4450
509	5225
509	5662
509	6222
509	6740
509	6741
509	6742
510	520
510	544
510	682
510	683
510	685
510	875
510	1034
510	1052
510	1097
510	1106
510	1332
510	1390
510	1557
510	1629
510	1655
510	1996
510	2241
510	2354
510	2502
510	2547
510	2695
510	2860
510	3306
510	3330
510	3568
510	3845
510	3918
510	3970
510	4019
510	4068
510	4157
510	4203
510	4647
510	4709
510	4710
510	5104
510	5434
510	5498
510	5897
510	6106
510	6401
510	6960
510	6961
510	6962
510	6963
510	6964
510	6965
510	6966
510	6967
511	561
511	692
511	1009
511	1101
511	3984
511	3991
511	5380
511	5478
511	6042
511	6288
511	7217
512	2906
512	3960
512	3964
512	6358
512	7222
513	1969
513	2421
513	2425
513	2710
513	4192
513	5276
513	7333
514	523
514	652
514	743
514	843
514	923
514	1229
514	1583
514	1864
514	1970
514	2102
514	2119
514	2182
514	2189
514	2247
514	2317
514	2455
514	2464
514	2467
514	2468
514	2599
514	2614
514	3272
514	3380
514	4358
514	5372
514	5762
515	516
515	3456
515	3926
515	3959
515	3992
515	4358
515	6530
515	6889
515	7517
515	7518
516	1629
516	3027
516	3456
516	3841
516	4019
516	5638
516	5931
517	561
517	676
517	860
517	892
517	1045
517	2638
517	3019
517	3305
517	3469
517	3960
517	3966
517	6022
517	7218
517	7617
517	7648
518	3395
518	6207
518	7617
519	561
519	824
519	6131
520	559
520	949
520	974
520	1383
520	2684
520	3261
520	3535
520	3735
520	3980
520	4709
520	7860
520	7861
521	2268
521	2962
521	3300
521	5476
521	7873
522	2638
522	3036
523	3456
523	4019
523	6883
524	561
524	592
524	1141
524	1429
524	1849
524	2695
524	2860
524	3395
524	3980
524	5380
524	5498
524	7283
524	7617
524	7915
524	7916
525	3218
525	7350
527	1159
527	2269
527	2732
527	2860
527	2861
527	3686
527	3927
527	3960
527	3970
527	3993
527	3995
527	3998
527	4709
527	5051
527	5104
527	6630
527	6914
527	7026
527	7648
527	7977
527	7978
528	1603
528	3282
529	827
530	4102
531	564
531	1229
531	3461
531	3966
531	5128
531	6742
531	8076
531	8077
532	1049
532	1220
532	1247
532	1625
532	1629
532	3966
532	6094
532	8116
533	538
533	539
533	650
533	1029
533	1541
533	2613
533	2625
533	3821
534	561
534	922
534	1467
534	1960
534	2002
534	2763
534	2860
534	2927
534	3624
534	3966
534	3970
534	4139
534	4196
534	4434
534	4709
534	4784
534	4848
534	4892
534	5498
534	5804
534	6742
534	7037
534	7989
534	8076
534	8193
534	8194
534	8195
534	8196
535	864
535	890
535	1098
535	2257
535	2842
535	3221
535	3244
535	3365
535	3480
535	4358
535	4430
535	4892
535	4893
535	4895
535	5654
535	5883
535	6570
535	6613
535	6630
535	6809
535	7157
535	8308
536	892
536	1723
536	2269
536	2733
536	2750
536	2959
536	3047
536	3222
536	3469
536	4726
536	5836
536	8075
536	8242
537	652
537	2663
537	2860
537	3652
537	3805
537	3922
537	3979
537	3994
537	5377
537	5433
538	539
538	943
538	954
538	2012
538	2421
538	3110
539	689
539	2637
539	2648
539	2748
539	3206
539	3380
539	3381
540	1925
540	2860
540	4068
540	4709
541	567
541	827
541	861
541	1188
541	1341
541	1454
541	1616
541	1809
541	2057
541	2278
541	2417
541	2860
541	2906
541	3041
541	3426
541	3456
541	3961
541	3967
541	3997
541	6358
541	7549
541	9122
542	561
542	2860
542	3970
542	5498
542	5957
543	4709
543	5380
543	5809
543	9156
544	665
544	687
544	727
544	751
544	754
544	872
544	920
544	1014
544	1038
544	1141
544	1179
544	1215
544	1221
544	1273
544	1309
544	1357
544	1418
544	1424
544	1475
544	1645
544	1647
544	1675
544	1692
544	1780
544	2244
544	2467
544	2501
544	2920
544	2974
544	3003
544	3145
544	3160
544	3170
544	3225
544	3323
544	3331
544	3335
544	3340
544	3395
544	3408
544	3438
544	3474
544	3635
544	3709
544	4271
544	4327
544	4381
544	4836
544	5016
544	5049
544	5060
544	5174
544	5177
544	5188
544	5198
544	5433
544	5521
544	5575
544	5676
544	5728
544	5793
544	5842
544	6011
544	6023
544	6027
544	6028
544	6030
544	6035
544	6055
544	6084
544	6137
544	6138
544	6179
544	6180
544	6232
544	6255
544	6275
544	6380
544	6461
544	6592
544	6695
544	6749
544	6803
544	6880
544	6895
544	6963
544	6964
544	7319
544	7370
544	7373
544	7542
544	7543
544	7544
544	7545
544	7546
544	7547
544	7548
544	7549
544	7550
544	7551
544	7552
544	7553
544	7554
544	7555
544	7556
544	7557
544	7558
544	7559
544	7560
544	7561
544	7562
544	7563
544	7564
544	7565
544	7566
544	7567
544	7568
544	7569
544	7570
544	7571
544	7572
544	7573
544	7574
544	7575
544	7576
544	7577
544	7578
544	7579
544	7580
544	7581
544	7582
544	7583
544	7584
544	7585
544	7586
544	7587
544	7588
544	7589
544	7590
544	7591
544	7592
545	3729
545	4381
545	5127
545	7430
545	7432
545	7433
545	7434
545	8066
545	8430
545	8431
545	8432
546	664
546	682
546	744
546	932
546	934
546	1032
546	1375
546	1828
546	2072
546	2359
546	2877
546	2881
546	2882
546	2883
546	2884
546	2885
546	2886
547	697
547	751
547	755
547	822
547	914
547	915
547	1018
547	1059
547	1228
547	1237
547	1418
547	1828
547	1953
547	2337
547	2361
547	2383
547	2432
547	2511
547	2548
547	2550
547	3144
547	3153
547	3291
547	3677
547	3678
547	3679
547	3680
547	3681
547	3682
547	3683
547	3684
548	549
548	707
548	1010
548	1011
548	1222
548	1583
548	2147
548	2180
548	2382
548	2464
548	2612
548	3257
548	3311
548	3662
548	3901
548	3902
548	3903
548	3904
548	3905
548	3906
548	3907
548	3908
548	3909
548	3910
548	3911
548	3912
548	3913
548	3914
548	3915
548	3916
548	3917
548	3918
548	3919
548	3920
549	551
549	1747
549	2156
549	2180
549	3267
549	3936
549	3948
550	619
550	621
550	643
550	731
550	742
550	751
550	816
550	825
550	922
550	923
550	1005
550	1018
550	1137
550	1227
550	1228
550	1747
550	1822
550	1929
550	1979
550	1984
550	2069
550	2073
550	2102
550	2143
550	2147
550	2164
550	2180
550	2201
550	2246
550	2341
550	2349
550	2383
550	2431
550	2433
550	2451
550	2475
550	2520
550	2683
550	3103
550	3515
550	3527
550	3615
550	3641
550	3679
550	4305
550	4386
550	4387
550	4388
550	4389
550	4390
550	4391
550	4392
550	4393
550	4394
550	4395
550	4396
550	4397
550	4398
550	4399
551	707
551	1222
551	2612
551	3902
551	3905
551	3906
551	3909
551	3931
551	4207
551	4492
552	580
552	619
552	661
552	663
552	665
552	666
552	667
552	814
552	864
552	954
552	1004
552	1036
552	1383
552	1583
552	1615
552	1832
552	1846
552	1847
552	2066
552	2112
552	2203
552	2291
552	2315
552	2340
552	2434
552	2481
552	2615
552	2617
552	2618
552	2619
552	2621
552	2622
552	2623
552	2624
552	2625
552	2626
552	2627
552	2628
552	2629
552	2630
552	2631
552	2632
552	2633
552	2634
552	2635
552	2636
552	2646
552	2653
552	2657
552	2763
552	2780
552	2783
552	2820
552	2822
552	2871
552	2956
552	3206
552	3427
552	3656
552	3789
552	4081
552	4101
552	4633
552	5176
552	5276
552	5763
552	6938
552	6939
552	6940
552	6941
552	6942
553	1006
553	1745
553	1828
553	1841
553	2180
553	2359
553	2829
553	2842
553	3124
553	3588
553	3972
553	4290
553	7157
553	7158
553	7159
553	7160
553	7161
554	665
554	926
554	943
554	1005
554	1370
554	2180
554	2526
554	3240
554	5492
554	7862
554	7863
555	6530
555	7023
556	2877
556	2886
557	1018
557	1028
557	1059
557	2480
557	2860
557	2906
557	3395
557	4180
557	6011
557	6170
557	6584
557	6585
557	6586
557	6587
557	6588
558	874
558	1610
558	1655
558	1663
558	1719
558	1728
558	1731
558	1732
558	1737
558	1738
558	1780
558	1781
558	1795
558	1999
558	2419
558	2524
558	3019
558	3456
558	3468
558	3469
558	4970
558	5095
558	6793
558	6800
559	943
559	1049
559	7189
560	1512
560	4077
560	4153
560	4529
560	5227
561	688
561	871
561	1188
561	1811
561	2857
561	3971
561	6011
562	1132
562	3478
562	3626
562	4906
562	5023
562	5266
562	5480
562	5662
562	7828
564	1188
564	1346
564	1598
564	1834
564	2670
564	6489
564	8467
564	8468
565	1923
565	6797
566	5166
566	8556
567	1260
567	2244
567	3223
567	4147
568	1138
568	1185
568	1241
568	2732
568	7736
568	7737
569	721
569	828
569	911
569	1723
569	2047
569	2598
569	2816
569	3578
569	3818
569	3925
569	4151
569	5939
569	7314
569	7604
570	1939
570	2598
570	4633
570	7604
571	618
571	652
571	682
571	727
571	735
571	784
571	827
571	1038
571	1153
571	1189
571	1264
571	1557
571	1604
571	1754
571	1766
571	1834
571	2339
571	2467
571	2756
571	2831
571	3119
571	3135
571	3225
571	3423
571	3454
571	3494
571	3918
571	3969
571	4091
571	4119
571	4163
571	4213
571	5119
571	5748
571	5821
571	5897
571	6014
571	6020
571	6029
571	6031
571	6033
571	6034
571	6035
571	6286
571	6523
571	6659
571	6670
571	6964
571	7121
571	7134
571	7800
571	8116
571	8392
571	9133
571	9195
571	9209
571	9210
571	9211
571	9212
571	9213
571	9214
571	9215
571	9216
572	928
572	1991
572	2342
572	2818
572	3613
572	4542
572	4694
572	5279
573	1141
573	1201
573	5193
574	2075
574	2344
574	2708
574	2709
574	3057
574	3190
574	3348
574	4500
574	4505
574	4507
574	4509
574	4510
574	4529
574	4808
574	6057
574	6883
574	7384
574	8365
574	8366
574	8367
575	745
575	1700
575	2920
575	4583
575	5169
575	5284
575	5356
576	634
576	1684
578	579
578	580
578	581
578	587
578	706
578	1732
578	2390
579	581
579	1006
579	1012
579	1018
579	1228
579	1546
579	2371
579	2903
580	665
580	1028
580	1134
580	1344
580	1350
580	1760
580	2072
580	4195
580	4711
580	6745
580	6802
580	6888
580	6889
581	880
581	932
581	1001
581	1004
581	1005
581	1017
581	1028
581	1127
581	1201
581	1210
581	1533
581	1698
581	1869
581	1999
581	2158
581	2371
581	2550
581	2625
581	2751
581	2844
581	3229
581	3553
581	3566
581	4393
581	4612
581	4875
581	5237
581	5843
581	6561
581	7078
581	7119
581	7923
581	7929
581	7930
581	7931
581	7932
581	7933
581	7934
581	7935
581	7936
581	7937
581	7938
581	7939
581	7940
581	7941
581	7942
581	7943
582	617
582	666
582	813
582	921
582	1015
582	1067
582	1684
582	2305
582	3177
582	3740
582	3752
582	4192
582	4287
582	4346
582	5214
582	5215
583	619
583	1222
583	1630
583	2257
583	2889
583	3130
583	3132
583	3157
583	3359
583	3812
583	4173
583	4286
583	4742
583	5235
583	5817
583	5959
583	5990
583	6206
583	6275
583	6864
583	7696
583	7793
583	8214
583	8580
583	8581
583	8582
583	8583
583	8584
583	8585
583	8586
583	8587
583	8588
583	8589
583	8590
583	8591
583	8592
583	8593
583	8594
583	8595
584	2337
585	586
585	587
585	588
585	589
585	590
585	591
586	587
586	592
586	593
586	594
586	595
586	596
586	597
586	598
586	599
586	600
586	601
586	602
586	603
586	604
586	605
586	606
587	612
587	613
587	614
587	615
588	664
588	709
588	712
588	734
588	735
588	792
588	794
588	795
588	801
588	804
588	808
588	813
588	915
588	1025
588	1938
588	2461
588	3591
588	4804
588	4805
588	4806
589	664
589	709
589	734
589	735
589	792
589	794
589	795
589	2461
589	3591
590	709
590	734
590	735
590	775
590	792
590	794
590	795
590	2461
590	3591
590	4806
590	5661
591	712
591	734
591	735
591	740
591	2461
592	616
592	617
593	642
593	643
593	644
593	645
593	646
593	647
593	648
593	649
594	650
594	651
594	652
594	653
594	654
594	655
594	656
594	657
594	658
594	659
595	619
595	660
595	661
595	662
595	663
595	664
595	665
595	666
595	667
595	668
595	669
595	670
595	671
595	672
595	673
595	674
595	675
595	676
595	677
595	678
596	600
596	679
596	680
597	619
597	681
597	682
598	682
598	683
598	684
598	685
598	686
598	687
598	688
599	689
600	680
600	690
601	691
601	692
601	693
601	694
601	695
602	619
602	648
602	696
602	697
602	698
602	699
602	700
603	682
603	683
603	684
603	687
603	701
603	702
604	682
604	683
604	684
604	685
604	701
604	702
605	869
605	1002
605	1411
605	1513
605	1844
605	2049
605	2526
605	2815
605	2850
605	2888
605	4696
605	4715
605	7318
605	7319
605	7320
605	7321
605	7322
607	660
607	665
607	725
607	742
607	743
607	751
607	769
607	875
607	880
607	1004
607	1191
607	1192
607	1210
607	1214
607	1231
607	1249
607	1381
607	1412
607	1417
607	1427
607	1512
607	1685
607	1686
607	1687
607	1717
607	1744
607	1746
607	1822
607	1944
607	1945
607	1947
607	1953
607	1962
607	1965
607	1967
607	1968
607	1970
607	1971
607	1974
607	1975
607	1978
607	1979
607	1980
607	1981
607	1988
607	2073
607	2101
607	2135
607	2144
607	2145
607	2352
607	2420
607	2475
607	2522
607	2523
607	2524
607	2525
607	2526
607	2527
607	2528
607	2529
607	2530
607	2531
608	717
608	743
608	744
608	746
608	769
608	814
608	1006
608	1076
608	1509
608	1513
608	1568
608	1641
608	1826
608	1829
608	1846
608	1918
608	1983
608	2142
608	2724
608	3238
608	3239
608	3240
608	3241
608	3242
608	3243
608	3244
608	3245
608	3246
608	3247
608	3248
608	3249
608	3250
608	3251
608	3252
609	1960
609	2073
609	2300
609	2388
609	2850
609	3368
609	3534
609	3712
609	3721
609	3725
609	4391
609	4651
609	4652
610	4624
610	4651
611	757
611	847
611	1612
611	1747
611	1960
611	1968
611	2073
611	2166
611	2358
611	2383
611	2447
611	2890
611	3063
611	3242
611	3368
611	3505
611	3531
611	3532
611	3533
611	3541
611	3700
611	3701
611	3702
611	3712
611	3713
611	3716
611	3723
611	3902
611	4629
611	4634
611	4635
611	4652
611	4681
611	4682
611	4683
611	4684
611	4685
612	3135
612	3169
612	3484
612	3739
612	4334
612	4612
612	4686
612	4687
612	4688
612	4689
612	4690
614	615
614	781
614	1028
614	2083
614	2683
614	2686
614	3330
614	3376
614	3719
614	3722
614	3753
614	3795
614	4245
614	4254
614	4654
614	4998
614	5114
614	5115
614	5116
615	2683
615	3719
615	3753
615	4245
615	4254
615	4654
615	4998
615	5114
615	5115
615	5116
616	619
616	682
616	683
616	687
616	908
616	909
616	910
616	915
616	933
616	1003
616	1221
616	1558
616	2767
616	2852
616	2853
616	2854
616	2855
616	2856
616	2857
616	2858
617	2452
617	2790
618	647
618	769
618	793
618	873
618	1012
618	1025
618	1056
618	1191
618	1285
618	1312
618	1313
618	1409
618	1421
618	1430
618	1715
618	1827
618	1838
618	1860
618	1936
618	2268
618	2304
618	2569
618	3009
618	3124
618	3160
618	3430
618	3621
618	4116
618	4117
618	4118
618	4119
618	4120
618	4121
618	4122
618	4123
618	4124
618	4125
618	4126
618	4127
619	660
619	689
619	696
619	706
619	710
619	797
619	834
619	906
619	916
619	1042
619	1774
619	1827
619	1838
619	2197
619	2305
619	2379
619	2391
619	2642
619	2764
619	2784
619	2867
619	2896
619	3016
619	3049
619	3505
619	3511
619	3541
619	3750
619	4130
619	4131
619	4132
619	4133
619	4134
619	4135
619	4136
619	4137
620	621
620	638
620	747
620	1059
620	1827
620	1958
620	2808
620	3125
620	3913
620	4223
620	4224
620	4225
620	4226
621	644
621	802
621	921
621	1036
621	1745
621	1900
621	1917
621	2041
621	2104
621	2144
621	2299
621	2548
621	2549
621	2777
621	2818
621	3129
621	3145
621	3287
621	3313
621	3379
621	3502
621	4148
621	4281
621	4286
621	4291
621	4292
621	4293
621	4294
621	4295
621	4296
621	4297
621	4298
621	4299
621	4300
621	4301
621	4302
621	4303
621	4304
621	4305
621	4306
621	4307
621	4308
621	4309
621	4310
621	4311
622	1979
622	2352
622	3135
622	3746
622	4286
622	4584
623	2235
623	3257
623	4286
623	4587
624	3483
624	4286
624	4341
624	4588
625	3311
625	3913
625	4292
626	964
626	1512
626	1513
626	1918
626	4758
626	4938
626	5071
626	5099
627	2041
627	2684
627	3132
627	3304
627	3484
627	4130
627	4302
627	4938
627	5627
628	958
628	4414
628	4572
628	5829
628	5831
628	5832
628	5833
628	5834
628	5835
629	726
629	1018
629	1028
629	4102
629	4274
629	4331
629	6614
630	2338
630	6723
632	7345
632	7379
633	4156
633	4764
634	3751
634	4369
634	6667
636	2804
637	6913
638	4149
638	7380
640	3128
640	4311
640	4341
640	4559
640	4700
640	7793
642	644
642	647
642	742
642	813
642	814
642	827
642	947
642	1192
642	1513
642	1567
642	1591
642	1694
642	1832
642	1915
642	2110
642	2245
642	2256
642	2257
642	2258
642	2259
642	2260
642	2261
642	2262
642	2263
642	2264
642	2265
642	2266
643	647
643	648
643	649
643	689
643	737
643	745
643	752
643	813
643	814
643	828
643	879
643	944
643	955
643	1006
643	1007
643	1014
643	1019
643	1025
643	1039
643	1082
643	1085
643	1086
643	1195
643	1220
643	1388
643	1418
643	1470
643	1493
643	1519
643	1531
643	1685
643	1686
643	1724
643	1747
643	1760
643	1828
643	1835
643	1837
643	1847
643	1937
643	1946
643	1984
643	1989
643	1992
643	2048
643	2066
643	2101
643	2109
643	2111
643	2118
643	2119
643	2166
643	2183
643	2193
643	2198
643	2206
643	2213
643	2244
643	2280
643	2337
643	2342
643	2433
643	2448
643	2457
643	2458
643	2488
643	2637
643	2778
643	2818
643	3125
643	3145
643	3273
643	3380
643	3643
643	4354
643	4355
643	4356
643	4357
643	4358
643	4359
643	4360
643	4361
643	4362
643	4363
643	4364
644	646
644	647
644	697
644	736
644	737
644	742
644	743
644	751
644	769
644	813
644	814
644	822
644	825
644	1010
644	1019
644	1210
644	1227
644	1229
644	1233
644	1336
644	1341
644	1348
644	1417
644	1427
644	1635
644	1686
644	1750
644	1835
644	1837
644	1947
644	1953
644	1956
644	1962
644	1969
644	1970
644	1973
644	1974
644	1980
644	1984
644	1989
644	1992
644	2073
644	2102
644	2105
644	2106
644	2107
644	2110
644	2114
644	2115
644	2119
644	2135
644	2137
644	2143
644	2146
644	2147
644	2150
644	2156
644	2159
644	2163
644	2172
644	2175
644	2181
644	2182
644	2189
644	2198
644	2199
644	2205
644	2207
644	2244
644	2245
644	2246
644	2247
644	2301
644	2303
644	2305
644	2306
644	2313
644	2317
644	2341
644	2372
644	2430
644	2441
644	2443
644	2519
644	2532
644	2616
644	2660
644	2778
644	2952
644	3501
644	3891
644	4383
644	4384
644	4385
645	822
645	1005
645	1984
645	3167
645	4079
645	4470
645	4942
646	647
646	751
646	813
646	814
646	817
646	822
646	1835
646	2102
646	2105
646	2110
646	2133
646	2134
646	2660
646	4667
646	5234
647	649
647	689
647	697
647	723
647	742
647	751
647	769
647	792
647	813
647	814
647	822
647	1014
647	1212
647	1336
647	1341
647	1417
647	1427
647	1747
647	1832
647	1946
647	1953
647	1970
647	1984
647	1988
647	1989
647	1992
647	2073
647	2101
647	2105
647	2107
647	2108
647	2120
647	2147
647	2150
647	2163
647	2174
647	2182
647	2188
647	2244
647	2248
647	2303
647	2307
647	2337
647	2342
647	2432
647	2433
647	2473
647	2508
647	2513
647	2520
647	2637
647	3644
647	3646
647	3657
647	3743
647	4079
647	4122
647	4356
647	4383
647	5283
647	5284
647	5285
647	5286
647	5287
647	5288
647	5289
648	697
648	737
648	743
648	745
648	751
648	754
648	769
648	813
648	814
648	822
648	1014
648	1122
648	1946
648	1952
648	1989
648	2106
648	2108
648	2161
648	2164
648	2201
648	2213
648	2216
648	2244
648	2364
648	2389
648	2467
648	2614
648	2637
648	2684
648	2756
648	2801
648	2871
648	2874
648	3022
648	4385
648	4875
648	5887
648	5979
649	743
649	745
649	911
649	1573
649	1786
649	2147
649	2150
649	2468
649	3157
649	7418
650	652
650	665
650	929
650	971
650	1003
650	1023
650	1451
650	1528
650	1536
650	3922
650	4318
650	5442
650	5443
651	652
651	653
651	1024
651	1944
651	2529
651	3012
651	3975
651	5141
652	656
652	658
652	659
652	662
652	751
652	822
652	875
652	960
652	1055
652	1210
652	1212
652	1227
652	1779
652	1832
652	1946
652	2660
652	2663
652	3428
652	3652
652	3922
652	3964
652	3994
652	6178
652	7133
652	7134
653	658
653	659
653	720
653	929
653	1625
653	2983
653	7424
653	7425
654	655
654	658
654	689
654	745
654	897
654	1658
654	1856
654	2625
654	3000
654	3001
654	3309
654	3922
654	4572
654	6895
654	7407
654	7484
654	7487
654	7488
654	7489
655	658
655	960
655	1012
655	3309
655	3922
655	4500
655	4572
655	6056
655	6295
655	7407
656	658
656	689
656	1446
656	2337
656	2709
656	3803
656	3922
656	3994
656	4031
656	6361
656	7996
657	1528
658	659
658	967
658	984
658	2250
658	2895
658	3016
658	3075
658	3428
658	6507
658	6572
658	7134
658	7655
658	7853
658	8533
658	8568
658	8690
658	8719
659	875
659	974
659	1833
659	2581
659	3979
659	4002
659	5793
659	6211
659	7647
659	7691
659	8719
659	8869
659	8870
660	661
660	671
660	673
660	678
660	813
660	873
660	935
660	961
660	1000
660	1005
660	1032
660	1052
660	1228
660	1235
660	1236
660	1237
660	1266
660	1303
660	1305
660	1336
660	1337
660	1338
660	1339
660	1340
660	1341
660	1342
660	1343
660	1344
660	1345
660	1346
660	1347
660	1348
660	1349
660	1350
660	1351
660	1352
660	1353
660	1354
660	1355
660	1356
660	1357
660	1358
660	1359
660	1360
660	1361
660	1362
660	1363
660	1364
660	1365
660	1366
660	1367
660	1368
660	1369
660	1370
660	1371
660	1372
660	1373
660	1374
660	1375
660	1376
660	1377
660	1378
660	1379
660	1380
661	670
661	671
661	673
661	677
661	678
661	745
661	814
661	864
661	881
661	922
661	935
661	942
661	1005
661	1014
661	1025
661	1076
661	1082
661	1145
661	1192
661	1197
661	1237
661	1242
661	1249
661	1266
661	1336
661	1350
661	1352
661	1358
661	1364
661	1365
661	1366
661	1374
661	1378
661	1515
661	1719
661	1756
661	2143
661	2235
661	2244
661	2280
661	2368
661	2530
661	2548
661	2549
661	2550
661	2551
661	2552
661	2553
661	2554
661	2555
661	2556
661	2557
662	670
662	1006
662	1366
662	1374
662	2025
662	2112
662	2555
662	2556
662	2602
663	824
663	919
663	1067
663	1418
663	2305
663	2463
663	3806
663	4178
663	4887
663	5923
663	5924
664	753
664	758
664	813
664	1349
664	1350
664	1364
664	1373
664	1375
664	1828
664	2555
664	2850
665	669
665	731
665	814
665	824
665	864
665	872
665	952
665	961
665	1007
665	1011
665	1012
665	1014
665	1028
665	1058
665	1082
665	1100
665	1194
665	1315
665	1344
665	1348
665	1388
665	1459
665	1469
665	1515
665	1529
665	1565
665	1615
665	1709
665	1719
665	1724
665	1750
665	1753
665	1757
665	1760
665	1858
665	1860
665	1864
665	2047
665	2069
665	2072
665	2079
665	2143
665	2150
665	2164
665	2168
665	2199
665	2235
665	2343
665	2345
665	2395
665	2426
665	2441
665	2548
665	2550
665	2623
665	2835
665	3106
665	3245
665	3319
665	3537
665	3576
665	3582
665	3804
665	3826
665	4195
665	4388
665	4405
665	5021
665	5098
665	5203
665	5776
665	5848
665	6080
665	6120
665	6121
665	6122
665	6123
665	6124
665	6125
665	6126
665	6127
665	6128
665	6129
665	6130
666	697
666	742
666	1338
666	1373
666	1375
666	1587
666	1796
666	1798
666	3446
666	3806
666	4711
666	6729
667	670
667	864
667	935
667	1195
667	1237
667	1249
667	1266
667	1334
667	1349
667	1350
667	1358
667	1366
667	1651
667	2012
667	2143
667	2280
667	2554
667	2555
667	2556
667	4915
667	5104
667	5156
667	5707
667	5762
667	6331
667	6643
667	7143
667	7144
668	669
668	671
668	918
668	942
668	1005
668	1058
668	1100
668	1286
668	1727
668	1748
668	1753
668	1834
668	2078
668	2168
668	2246
668	2356
668	2433
668	2799
668	3010
668	4708
668	4764
668	4770
668	5309
668	5430
668	5680
668	5696
668	5697
668	7346
668	7347
668	7348
669	1058
669	1191
669	1409
669	1619
669	1748
669	1756
669	1774
669	2433
669	2520
670	743
670	1338
670	1565
670	2047
670	2517
670	2548
670	2549
670	2554
670	2623
670	2645
670	2962
670	3142
670	3700
670	3845
670	5295
671	827
671	942
671	1004
671	1058
671	1105
671	1191
671	1192
671	1368
671	1369
671	1375
671	1412
671	1454
671	1515
671	1565
671	1657
671	1753
671	1837
671	1860
671	2298
671	2356
671	2433
671	2473
671	2719
671	2951
671	4151
671	4759
671	5098
671	5178
671	5648
671	5674
671	5680
671	5896
671	6836
671	8003
672	1338
672	2554
672	4826
673	1197
673	1409
673	1657
673	3142
674	2016
674	2303
674	3617
674	6710
674	8261
674	8262
675	689
675	1375
675	2554
675	8318
675	8319
676	2289
676	2554
676	2623
676	2910
676	4783
676	5923
676	6775
677	689
677	1014
677	1418
677	1565
677	1864
677	2214
677	2554
677	3826
677	4113
678	2554
679	680
679	813
679	3139
680	3268
681	683
681	1201
681	2003
681	2257
682	688
682	703
682	716
682	717
682	719
682	720
682	722
682	727
682	743
682	771
682	772
682	907
682	959
682	1006
682	1570
682	1917
682	1984
682	2161
682	2180
682	2218
682	2724
682	2827
682	2828
682	2829
682	2830
682	2831
682	2832
682	2833
683	684
683	703
683	704
683	708
683	709
683	710
683	711
683	712
683	713
683	714
683	715
683	716
683	717
683	718
683	719
683	720
683	721
683	722
683	723
683	724
683	725
683	726
683	727
683	728
685	703
685	704
685	716
685	722
685	724
685	742
685	764
685	908
685	1570
685	1984
685	2177
685	2431
685	2745
685	2867
685	3243
685	3287
685	3288
685	3289
685	3290
686	688
686	959
686	1603
686	1688
687	1003
687	1007
687	5774
688	860
688	1188
688	1189
688	1734
688	1741
688	1859
688	1926
688	1932
688	2029
688	2297
688	2860
688	3360
688	3442
688	3653
688	3963
688	3970
688	3979
688	3993
688	4068
688	4573
688	4641
688	4754
688	5089
688	5429
688	5565
688	5976
688	6089
688	6173
688	6478
688	6653
688	6750
688	6779
688	6999
688	7314
688	7644
688	7850
688	7893
688	8095
688	8154
688	8456
688	8540
688	8805
688	8806
688	8807
688	8808
688	8809
688	8810
688	8811
688	8812
688	8813
688	8814
688	8815
688	8816
689	804
689	814
689	875
689	879
689	886
689	890
689	892
689	893
689	911
689	919
689	920
689	934
689	941
689	943
689	984
689	1011
689	1017
689	1019
689	1082
689	1092
689	1116
689	1210
689	1264
689	1341
689	1369
689	1414
689	1415
689	1418
689	1507
689	1529
689	1583
689	1612
689	1623
689	1657
689	1665
689	1724
689	1823
689	1843
689	1849
689	1852
689	1858
689	1868
689	1869
689	1876
689	1916
689	1973
689	1999
689	2047
689	2048
689	2127
689	2129
689	2143
689	2146
689	2154
689	2160
689	2167
689	2271
689	2308
689	2336
689	2337
689	2343
689	2344
689	2345
689	2348
689	2354
689	2390
689	2395
689	2420
689	2466
689	2497
689	2529
689	2550
689	2599
689	2628
689	2644
689	2646
689	2648
689	2729
689	2766
689	2841
689	2864
689	2935
689	2956
689	3081
689	3160
689	3196
689	3208
689	3245
689	3305
689	3414
689	3419
689	3442
689	3447
689	3537
689	3543
689	3568
689	3576
689	3607
689	3640
689	3654
689	3656
689	3722
689	3735
689	3782
689	3783
689	3784
689	3785
689	3786
689	3787
689	3788
689	3789
689	3790
689	3791
689	3792
689	3793
689	3794
689	3795
689	3796
689	3797
689	3798
689	3799
689	3800
689	3801
689	3802
689	3803
689	3804
689	3805
689	3806
689	3807
689	3808
689	3809
689	3810
689	3811
689	3812
689	3813
689	3814
689	3815
689	3816
689	3817
689	3818
689	3819
689	3820
689	3821
689	3822
689	3823
689	3824
689	3825
689	3826
689	3827
689	3828
689	3829
689	3830
689	3831
689	3832
689	3833
689	3834
689	3835
689	3836
689	3837
689	3838
689	3839
689	3840
689	3841
689	3842
689	3843
689	3844
689	3845
689	3846
689	3847
689	3848
689	3849
689	3850
689	3851
689	3852
689	3853
689	3854
689	3855
689	3856
689	3857
689	3858
689	3859
689	3860
689	3861
689	3862
689	3863
689	3864
689	3865
689	3866
689	3867
689	3868
689	3869
689	3870
689	3871
689	3872
689	3873
689	3874
689	3875
689	3876
689	3877
689	3878
689	3879
689	3880
689	3881
689	3882
689	3883
689	3884
689	3885
689	3886
689	3887
689	3888
689	3889
691	706
691	2383
691	2764
691	3366
691	3430
691	3798
691	5869
692	711
692	772
692	789
692	791
692	797
692	803
692	828
692	836
692	1018
692	1038
692	1228
692	2141
692	3454
692	3607
692	6598
692	6599
692	6600
692	6601
693	6598
694	1838
695	9136
696	1827
696	1838
696	1960
696	2716
696	2867
696	4130
696	4135
697	737
697	742
697	743
697	745
697	751
697	753
697	767
697	769
697	772
697	812
697	813
697	814
697	822
697	825
697	1192
697	1210
697	1510
697	1685
697	1686
697	1832
697	1835
697	1944
697	1953
697	1954
697	1968
697	1976
697	1980
697	1984
697	1992
697	2049
697	2072
697	2123
697	2213
697	2244
697	2364
697	2385
697	2392
697	2441
697	2462
697	2532
697	2731
697	2874
697	2878
697	3356
697	3463
697	3616
697	3906
697	3911
697	4356
697	4971
697	4985
697	5183
697	5238
697	5968
698	1465
699	8681
701	778
701	779
701	1342
701	1615
701	2393
701	2550
701	2600
701	2843
701	3060
701	3510
701	3863
701	4080
701	4658
701	5153
701	5644
701	6429
701	6430
702	1240
702	2134
702	3510
702	4644
702	5131
702	5404
702	5409
703	704
703	705
703	706
703	707
704	718
704	768
705	813
705	916
705	3238
705	3629
705	3632
706	770
706	777
706	1917
706	2381
706	2683
706	2686
706	3267
706	3269
706	3729
706	3730
706	3731
706	3732
706	3733
706	3734
707	1245
707	1674
707	2385
707	3910
707	3935
707	3945
707	3946
708	729
708	730
708	731
708	732
708	733
709	734
709	735
709	736
709	737
709	738
709	739
709	740
709	741
710	742
710	743
710	744
710	745
710	746
710	747
710	748
710	749
711	721
711	722
711	723
711	725
711	742
711	750
711	751
711	752
711	753
711	754
711	755
711	756
711	757
711	758
711	759
711	760
711	761
711	762
711	763
711	764
712	753
712	758
712	765
712	766
712	767
713	813
713	814
713	815
713	816
713	817
713	818
713	819
713	820
714	767
714	868
715	869
715	870
715	871
715	872
715	873
715	874
715	875
715	876
715	877
715	878
715	879
715	880
715	881
715	882
715	883
715	884
715	885
715	886
715	887
715	888
715	889
715	890
715	891
715	892
715	893
715	894
715	895
715	896
715	897
715	898
715	899
715	900
716	901
716	902
716	903
716	904
716	905
717	906
718	907
718	908
718	909
718	910
719	911
719	912
719	913
721	722
721	752
721	753
721	763
721	772
721	800
721	821
721	828
721	841
721	914
721	915
721	916
721	917
721	918
721	919
721	920
721	921
721	922
721	923
721	924
721	925
721	926
721	927
721	928
721	929
721	930
721	931
721	932
721	933
721	934
721	935
721	936
721	937
721	938
721	939
722	724
722	750
722	763
722	772
722	901
722	1177
722	1249
722	1271
722	1341
722	1828
722	2398
722	2722
722	2829
722	2830
722	3080
722	3562
722	4078
722	4294
722	4777
722	5169
722	5576
723	856
723	1221
723	1726
723	1838
723	1839
723	1840
723	2154
723	2283
723	2441
723	2668
723	2829
723	2854
723	2889
723	2948
723	3021
723	3137
723	3364
723	3484
723	3743
723	4071
723	4820
723	5361
723	5559
723	6273
723	6274
723	6275
723	6276
723	6277
723	6278
723	6279
724	801
724	925
724	1937
724	3682
725	764
725	1244
725	2188
725	7151
726	2108
726	2161
726	2269
726	2639
726	2750
726	2823
726	4392
726	8040
727	1531
727	1740
727	2034
727	2492
727	3583
727	4147
727	5431
727	7135
727	7349
727	8116
727	8721
728	2102
728	3380
729	4989
730	4761
731	745
731	760
731	1018
731	1044
731	1134
731	1228
731	1901
731	2034
731	2319
731	2417
731	4806
731	6596
731	6597
732	954
732	1044
732	1740
732	1899
732	1913
733	6597
734	735
734	736
734	739
734	740
734	795
734	1352
734	1509
734	2461
734	3266
734	3267
734	3268
734	3269
734	3270
735	738
735	795
735	3270
735	4258
735	4752
735	4753
736	738
736	813
736	2176
736	2177
736	2659
736	2790
736	3120
736	5002
736	5170
736	5171
737	743
737	745
737	813
737	1227
737	1686
737	1740
737	2049
737	2147
737	2213
737	2874
737	3273
737	3463
737	3634
737	3823
737	4843
737	5958
737	5959
737	5960
737	5961
737	5962
738	7246
740	784
740	894
740	3270
740	3432
740	4258
740	5212
740	6166
740	7248
741	8525
741	9278
742	743
742	745
742	751
742	769
742	813
742	814
742	928
742	1005
742	1019
742	1058
742	1192
742	1336
742	1417
742	1427
742	1512
742	1685
742	1686
742	1943
742	1955
742	1956
742	1957
742	1969
742	1970
742	1971
742	1973
742	1974
742	1979
742	1980
742	1984
742	1989
742	2073
742	2101
742	2102
742	2103
742	2110
742	2134
742	2143
742	2145
742	2146
742	2147
742	2159
742	2163
742	2167
742	2173
742	2175
742	2182
742	2195
742	2198
742	2199
742	2213
742	2245
742	2248
742	2299
742	2300
742	2301
742	2302
742	2303
742	2304
742	2305
742	2306
742	2307
742	2308
742	2309
742	2310
742	2311
742	2312
742	2313
742	2314
742	2315
742	2316
742	2317
742	2318
742	2319
742	2320
742	2321
742	2322
742	2323
742	2324
742	2325
742	2326
742	2327
742	2328
742	2329
742	2330
742	2331
742	2332
742	2333
742	2334
742	2335
743	745
743	751
743	752
743	769
743	812
743	813
743	814
743	822
743	825
743	941
743	1012
743	1074
743	1227
743	1336
743	1512
743	1531
743	1686
743	1822
743	1826
743	1842
743	1953
743	1968
743	1970
743	1971
743	1980
743	2049
743	2078
743	2123
743	2143
743	2147
743	2161
743	2186
743	2213
743	2216
743	2244
743	2246
743	2301
743	2303
743	2385
743	2432
743	2441
743	2467
743	2532
743	2539
743	2642
743	2731
743	2866
743	2867
743	2868
743	2869
743	2870
743	2871
743	2872
743	2873
743	2874
743	2875
743	2876
743	2877
743	2878
743	2879
743	2880
744	751
744	769
744	770
744	775
744	816
744	1227
744	1636
744	2010
744	2141
744	2390
744	2508
744	2605
744	2852
744	3132
744	3162
744	3241
744	3369
744	3481
744	3482
744	3483
744	3484
744	3485
744	3486
744	3487
744	3488
744	3489
744	3490
744	3491
744	3492
745	751
745	769
745	919
745	941
745	1005
745	1012
745	1028
745	1227
745	1691
745	1749
745	1835
745	1953
745	1989
745	2072
745	2123
745	2161
745	2213
745	2216
745	2244
745	2305
745	2395
745	2399
745	2402
745	2462
745	2467
745	2637
745	2646
745	2731
745	2755
745	2867
745	3241
745	3276
745	3493
745	3620
745	3638
745	3784
745	3906
745	4736
745	4976
745	5317
745	5925
746	747
746	813
746	2141
746	4462
746	5555
746	5908
746	6006
746	6007
747	1953
747	3239
747	3483
747	4148
747	6679
748	921
748	3177
748	3239
748	4281
748	4369
748	4922
748	4923
748	5545
748	5618
749	1748
750	765
750	781
750	844
750	938
750	3436
751	754
751	772
751	814
751	868
751	914
751	922
751	1006
751	1202
751	1210
751	1212
751	1227
751	1233
751	1509
751	1513
751	1568
751	1615
751	1686
751	1828
751	1832
751	1858
751	1937
751	1947
751	1953
751	1970
751	1974
751	1976
751	1980
751	1983
751	1988
751	1992
751	2016
751	2047
751	2073
751	2101
751	2102
751	2103
751	2104
751	2105
751	2107
751	2108
751	2109
751	2112
751	2114
751	2115
751	2116
751	2117
751	2118
751	2119
751	2133
751	2143
751	2150
751	2168
751	2180
751	2185
751	2186
751	2188
751	2191
751	2192
751	2193
751	2195
751	2196
751	2198
751	2201
751	2202
751	2204
751	2205
751	2206
751	2207
751	2209
751	2210
751	2213
751	2244
751	2247
751	2249
751	2311
751	2316
751	2320
751	2338
751	2342
751	2353
751	2380
751	2389
751	2442
751	2446
751	2453
751	2454
751	2455
751	2456
751	2457
751	2465
751	2662
751	2735
751	2780
751	2813
751	2821
751	3157
751	3206
751	3499
751	3555
751	3565
751	3612
751	3613
751	3614
751	3615
751	3616
751	3617
751	3618
751	3619
751	3620
751	3621
751	3622
751	3623
752	813
752	843
752	864
752	911
752	1412
752	1557
752	1835
752	1918
752	2111
752	2202
752	2362
752	2364
752	2468
752	2508
752	2637
752	2843
752	2956
752	3918
752	3957
752	4087
752	5023
752	5056
752	5057
753	759
753	761
753	763
753	772
753	773
753	775
753	779
753	782
753	785
753	788
753	792
753	794
753	795
753	796
753	797
753	798
753	799
753	800
753	801
753	804
753	808
753	812
753	836
753	845
753	855
753	915
753	3591
754	772
754	814
754	925
754	1829
754	1989
754	2199
754	2207
754	2243
754	2244
754	2245
754	2637
754	5576
755	765
755	2268
755	2850
755	2997
755	3283
755	3421
755	3681
755	4403
755	4426
755	4880
755	5283
755	5509
755	6589
755	6774
755	7023
755	7077
756	765
756	782
756	786
756	789
756	795
756	829
756	2628
756	3124
756	3591
757	769
757	814
757	922
757	1210
757	1970
757	2120
757	2146
757	2308
757	2718
757	3028
757	4405
757	5021
757	5124
757	5906
757	5938
758	772
758	785
758	792
758	794
758	796
758	797
758	801
758	803
758	804
758	808
758	828
758	829
758	836
758	851
758	1883
758	4750
758	4786
758	5981
758	6073
758	6082
758	6601
758	7515
759	765
759	795
759	2628
759	3348
759	3591
759	6082
759	7516
760	780
760	823
760	854
760	1938
760	1941
760	1942
760	2264
760	4785
760	5121
761	800
761	3927
763	800
763	828
763	1970
763	2073
763	2467
763	5169
763	6184
763	7432
764	772
764	1271
764	2722
764	3126
764	5576
764	5594
765	770
765	772
765	779
765	782
765	789
765	795
765	797
765	808
765	1918
765	2225
765	2399
765	2455
765	2821
765	3124
765	3498
765	3624
765	3626
765	3982
765	4162
765	4656
765	4786
765	4787
765	4841
765	5852
765	5897
765	6065
765	6066
765	6067
765	6068
766	943
766	951
766	954
766	1018
766	1036
766	1044
766	1228
766	1243
766	1297
766	1456
766	1583
766	1606
766	1700
766	1824
766	1899
766	2003
766	2012
766	2112
766	2416
766	2417
766	2421
766	2423
766	2424
766	2461
766	2480
766	2860
766	3088
766	3110
766	3473
766	3657
766	4862
766	4992
766	5129
766	5317
766	5495
766	6083
766	6506
766	6650
766	6651
766	6652
766	6653
766	6654
766	6655
766	6656
766	6657
766	6658
767	790
767	791
767	947
767	2389
767	2582
767	4787
767	5049
768	2731
768	3310
769	814
769	1005
769	1032
769	1192
769	1202
769	1210
769	1212
769	1227
769	1417
769	1509
769	1513
769	1832
769	1835
769	1858
769	1937
769	1943
769	1947
769	1953
769	1954
769	1968
769	1969
769	1974
769	1983
769	1984
769	1992
769	2047
769	2101
769	2103
769	2107
769	2109
769	2112
769	2115
769	2117
769	2119
769	2141
769	2166
769	2180
769	2181
769	2182
769	2183
769	2184
769	2185
769	2186
769	2187
769	2188
769	2189
769	2190
769	2191
769	2192
769	2193
769	2194
769	2195
769	2196
769	2197
769	2198
769	2199
769	2200
769	2201
769	2202
769	2203
769	2204
769	2205
769	2206
769	2207
769	2208
769	2209
769	2210
769	2211
769	2212
769	2213
769	2214
769	2215
769	2216
769	2217
770	956
770	1264
770	2269
770	2337
770	2510
770	2608
770	2723
770	2761
770	2762
770	2763
770	2764
770	2765
770	2766
770	2767
770	2768
770	2769
770	2770
770	2771
770	2772
770	2773
770	2774
770	2775
771	911
771	917
771	925
771	1827
771	2161
771	2313
771	2338
771	2756
771	2766
771	2837
771	2838
771	2839
771	2840
772	835
772	1006
772	2850
772	2851
773	968
773	1488
773	1745
773	1900
773	1917
773	2071
773	2129
773	2144
773	2177
773	2299
773	2544
773	2548
773	2549
773	2721
773	2731
773	2817
773	3018
773	3129
773	3145
773	3150
773	3287
773	3376
773	3742
773	3752
773	4244
773	4292
773	4294
773	4295
773	4301
773	4324
773	4489
773	4490
773	4491
773	4492
773	4493
773	4494
773	4495
774	783
774	1917
774	3687
774	4736
775	793
775	1417
775	1529
775	1636
775	1938
775	2183
775	2532
775	2787
775	2800
775	4299
775	4587
775	5327
775	5328
775	5329
775	5330
776	3243
776	5571
777	2388
777	3730
777	5634
778	797
778	915
778	1336
778	2340
778	2388
778	3284
778	5428
778	5906
779	4529
781	782
781	785
781	1537
781	1940
781	2684
781	2728
781	2832
781	3436
781	3732
781	3918
781	4392
781	5023
782	833
782	925
782	1940
782	2336
782	3918
782	5023
782	5815
782	6411
783	857
783	858
783	1385
783	2147
783	2220
783	2391
783	2571
783	2881
783	2913
783	3501
783	3505
783	3506
783	3507
783	3512
783	3516
783	3517
783	3518
783	3519
783	4731
783	5374
783	6552
784	827
784	1189
784	2203
784	3015
784	3439
784	3442
784	3961
784	3962
784	6105
784	6131
784	6181
785	2832
786	3064
786	3075
786	3363
786	4625
786	6285
787	2012
787	2421
788	2091
789	797
789	1210
789	7920
792	2850
792	3270
792	5953
793	820
793	1221
793	1938
793	2235
793	4249
793	4376
793	5189
793	5402
793	5616
795	3124
795	6955
797	7796
797	8419
798	1917
798	6539
800	828
800	2844
800	3835
800	4356
801	917
801	2850
801	7759
802	840
802	4182
802	5056
802	5308
802	7822
802	7823
802	8005
803	8419
804	1917
804	2315
804	2950
804	4345
804	4839
808	2198
808	2850
808	4058
810	4665
813	814
813	815
813	823
813	824
813	825
813	868
813	922
813	923
813	947
813	1010
813	1019
813	1035
813	1212
813	1229
813	1237
813	1265
813	1336
813	1509
813	1512
813	1685
813	1686
813	1724
813	1725
813	1749
813	1750
813	1832
813	1835
813	1836
813	1837
813	1935
813	1944
813	1947
813	1953
813	1956
813	1969
813	1970
813	1980
813	1983
813	1984
813	1989
813	1992
813	2011
813	2066
813	2073
813	2101
813	2102
813	2105
813	2106
813	2107
813	2108
813	2109
813	2110
813	2120
813	2132
813	2133
813	2143
813	2146
813	2150
813	2163
813	2164
813	2166
813	2182
813	2183
813	2184
813	2192
813	2193
813	2194
813	2195
813	2196
813	2197
813	2198
813	2199
813	2200
813	2205
813	2217
813	2243
813	2244
813	2245
813	2246
813	2247
813	2248
813	2301
813	2302
813	2303
813	2304
813	2306
813	2307
813	2308
813	2309
813	2310
813	2311
813	2341
813	2342
813	2388
813	2389
813	2435
813	2439
813	2440
813	2499
813	2508
813	2509
813	2532
813	2569
813	2599
813	2615
813	2616
813	2659
813	2745
813	2756
813	2764
813	2778
813	2779
813	2780
813	2813
813	2843
813	3103
813	3115
813	3206
813	3220
813	3304
813	3501
813	3633
813	3634
813	3635
813	3636
813	3637
813	3638
813	3639
813	3640
813	3641
813	3642
813	3643
813	3644
813	3645
813	3646
813	3647
813	3648
813	3649
813	3650
813	3651
813	3652
813	3653
813	3654
813	3655
813	3656
813	3657
813	3658
813	3659
813	3660
813	3661
814	825
814	827
814	922
814	923
814	925
814	1072
814	1195
814	1212
814	1229
814	1336
814	1509
814	1685
814	1686
814	1691
814	1750
814	1827
814	1835
814	1943
814	1946
814	1947
814	1952
814	1953
814	1954
814	1956
814	1959
814	1960
814	1970
814	1973
814	1976
814	1979
814	1984
814	1988
814	1989
814	2101
814	2103
814	2108
814	2113
814	2114
814	2120
814	2132
814	2133
814	2141
814	2143
814	2146
814	2147
814	2156
814	2163
814	2166
814	2182
814	2184
814	2188
814	2189
814	2199
814	2210
814	2244
814	2245
814	2247
814	2306
814	2308
814	2311
814	2315
814	2323
814	2342
814	2439
814	2454
814	2458
814	2464
814	2518
814	2520
814	2532
814	2616
814	2645
814	2669
814	2813
814	2922
814	2948
814	3131
814	3205
814	3322
814	3586
814	3620
814	3649
814	3788
814	3891
814	4106
814	4107
814	4108
814	4109
814	4110
814	4111
815	825
815	2105
815	2352
815	2532
815	3016
815	3571
815	4587
815	5172
816	878
816	965
816	1018
816	1914
816	1973
816	2022
816	2025
816	3130
816	3177
816	3484
816	3486
816	3736
816	3744
816	3756
816	4148
816	4223
816	4320
816	4368
816	4369
816	4372
816	4520
816	5140
816	5316
817	830
817	868
817	1017
817	1686
817	1750
817	1835
817	1970
817	1980
817	2073
817	2101
817	2103
817	2108
817	2117
817	2119
817	2442
817	2454
817	2455
817	3614
817	4671
818	965
818	1221
818	1740
818	1914
818	3287
818	3379
818	3488
818	3571
818	3756
818	4320
818	4369
818	4529
818	5316
818	7331
819	923
819	2066
819	2102
819	2109
819	2117
819	2123
819	2778
819	2843
819	3384
819	3906
819	4145
820	1260
820	2109
820	2404
820	2778
820	4070
820	4147
820	4221
821	2299
821	2544
821	3129
821	3752
821	4292
821	4310
821	4407
822	1005
822	1034
822	1052
822	1082
822	1206
822	1210
822	1212
822	1227
822	1383
822	1388
822	1686
822	1724
822	1747
822	1833
822	1835
822	1837
822	1858
822	1947
822	1953
822	1969
822	1974
822	1976
822	1983
822	1984
822	1988
822	1989
822	2101
822	2103
822	2107
822	2110
822	2112
822	2114
822	2115
822	2116
822	2117
822	2118
822	2119
822	2128
822	2150
822	2156
822	2163
822	2185
822	2186
822	2191
822	2196
822	2198
822	2199
822	2206
822	2210
822	2213
822	2215
822	2217
822	2302
822	2304
822	2311
822	2334
822	2342
822	2440
822	2442
822	2447
822	2453
822	2455
822	2462
822	2510
822	2512
822	3565
822	3566
822	3614
822	3891
822	4107
822	4699
822	4872
822	4873
822	4874
822	4875
822	4876
822	4877
823	826
823	1901
823	1917
823	2384
823	3376
823	4147
823	5106
824	837
824	862
824	869
824	941
824	942
824	949
824	967
824	1025
824	1109
824	1179
824	1204
824	1258
824	1835
824	2012
824	2372
824	2417
824	2421
824	2423
824	2952
824	3048
824	3373
824	3374
824	3384
824	3560
824	4147
824	4234
824	4907
824	5106
824	5194
824	5195
824	5196
824	5197
824	5198
824	5199
824	5200
824	5201
824	5202
824	5203
825	1686
825	1938
825	1955
825	2102
825	2105
825	2183
825	2246
825	2338
825	2448
825	2462
825	2532
825	2777
825	2783
825	2786
825	2787
825	3128
825	3241
825	3918
825	4298
825	5235
825	5236
826	846
826	3679
826	4356
827	919
827	1066
827	1341
827	1530
827	1687
827	2149
827	2158
827	2545
827	2804
827	2813
827	3241
827	3266
827	3374
827	3454
827	3474
827	3521
827	3588
827	3926
827	3927
827	5166
827	5653
827	6343
827	6344
827	6345
827	6346
827	6347
827	6348
828	841
828	914
828	917
828	918
828	919
828	920
828	922
828	923
828	924
828	925
828	926
828	928
828	929
828	930
828	931
828	935
828	936
828	938
828	939
829	1018
829	2177
829	5059
829	5609
829	6264
830	2818
830	2867
830	4698
830	5205
830	6993
832	3291
833	1940
833	2425
833	4131
833	4381
833	4641
833	6581
834	3436
834	3918
834	5023
837	3526
837	3588
838	866
838	1988
838	2159
838	4108
839	855
839	947
839	2628
839	2646
839	4491
839	4630
839	6952
839	7975
840	7822
840	8069
840	8070
841	3606
843	937
843	2016
843	2103
843	2391
843	2850
843	3436
843	3574
843	3631
843	3638
843	3657
843	3918
843	4911
843	5023
843	5232
843	5760
843	8325
844	855
844	926
844	2351
844	2628
844	2646
844	3436
844	3591
844	4630
844	6952
844	7975
844	8330
845	3626
845	4786
845	6065
847	3124
847	5169
847	6955
848	7082
849	7007
850	3626
851	3626
852	3041
852	3626
853	2391
853	3544
853	3631
853	4682
853	6726
853	7641
854	2177
854	2628
854	4816
854	8912
855	3860
855	4357
856	3016
856	3184
856	3223
857	915
857	2222
857	3506
858	932
858	1691
858	2355
858	4732
858	6144
858	6567
859	874
859	1585
859	2223
859	5698
859	6726
860	1006
860	1418
860	3609
861	968
861	975
861	1120
861	1306
861	1346
861	1567
861	1757
861	2272
861	2283
861	3392
861	5698
861	6726
861	7601
861	7602
862	951
862	953
862	968
862	969
862	973
862	978
862	979
862	1031
862	1207
862	1389
862	1552
862	1615
862	1668
862	1932
862	2012
862	2057
862	2857
862	2875
862	3405
862	3774
862	3790
862	3856
862	4114
862	4115
862	4502
862	4557
862	4620
862	4638
862	4846
862	5007
862	5708
862	5741
862	6187
862	6195
862	6513
862	7781
862	7782
862	7783
862	7784
862	7785
862	7786
862	7787
862	7788
862	7789
863	2771
863	3480
863	4257
864	894
864	922
864	923
864	1098
864	2066
864	2102
864	2112
864	2635
864	2804
864	2843
864	3588
864	4731
864	5016
864	6378
864	7235
865	3322
865	4780
865	5661
865	8146
866	918
868	953
868	1005
868	2470
868	5250
869	927
869	955
869	1000
869	1002
869	1007
869	1053
869	1061
869	1062
869	1080
869	1089
869	1105
869	1183
869	1213
869	1235
869	1249
869	1309
869	1317
869	1362
869	1405
869	1412
869	1439
869	1463
869	1509
869	1510
869	1511
869	1512
869	1513
869	1514
869	1515
869	1516
869	1517
869	1518
869	1519
869	1520
869	1521
869	1522
869	1523
869	1524
869	1525
869	1526
869	1527
870	888
870	1000
870	1075
870	1197
870	1535
870	1536
870	1537
870	1538
870	1539
870	1540
870	1541
870	1542
870	1543
871	874
871	1037
871	1195
871	1208
871	1255
871	1269
871	1450
871	1452
871	1456
871	1610
871	1719
871	1723
871	1724
871	1725
871	1726
871	1727
871	1728
871	1729
871	1730
871	1731
871	1732
871	1733
871	1734
871	1735
871	1736
871	1737
871	1738
871	1739
871	1740
871	1741
871	1742
871	1743
872	926
872	1000
872	1014
872	1033
872	1056
872	1178
872	1213
872	1214
872	1235
872	1265
872	1294
872	3004
872	3005
872	3006
873	1018
873	1393
873	1395
873	1414
873	1416
873	1690
873	2566
873	3186
873	4237
873	4238
873	4239
873	4240
874	880
874	1038
874	1181
874	1423
874	1451
874	1458
874	1562
874	1617
874	1719
874	1724
874	1755
874	1779
874	1780
874	1782
874	1852
874	2776
874	3024
874	4256
874	4257
874	4258
874	4259
875	928
875	929
875	954
875	971
875	1081
875	1163
875	1212
875	1213
875	1235
875	1357
875	1590
875	1702
875	1926
875	1943
875	2010
875	2423
875	2663
875	3224
875	3301
875	3385
875	3406
875	3652
875	4532
875	4612
875	5429
875	5430
875	5431
875	5432
875	5433
875	5434
876	1005
876	1007
876	1018
876	1024
876	1110
876	1213
876	1465
876	1732
876	2058
876	2085
876	2996
876	3049
876	3611
876	5164
876	5510
876	5511
876	5512
876	5513
876	5514
876	5515
876	5516
877	1105
877	1181
877	1191
877	1213
877	1605
877	2041
877	2572
877	5628
878	880
878	881
878	887
878	929
878	1033
878	1054
878	1136
878	1145
878	1177
878	1178
878	1181
878	1184
878	1188
878	1191
878	1213
878	1233
878	1235
878	1248
878	1258
878	1275
878	1282
878	1296
878	1353
878	1409
878	1410
878	1422
878	1425
878	1428
878	1431
878	1432
878	1435
878	1454
878	1579
878	1587
878	1592
878	1593
878	1595
878	1596
878	1597
878	1776
878	1798
878	1803
878	2057
878	2061
878	2064
878	2233
878	2492
878	2493
878	2591
878	2674
878	2676
878	3047
878	3186
878	3435
878	3507
878	3988
878	4368
878	4817
878	5700
878	5701
878	5702
879	1011
879	1019
879	1032
879	1033
879	1116
879	1184
879	1213
879	1235
879	1236
879	1341
879	1418
879	1454
879	1565
879	1657
879	1724
879	1750
879	2047
879	2072
879	2343
879	2344
879	2345
879	2434
879	2550
879	2617
879	2618
879	2841
879	3245
879	3305
879	3498
879	3559
879	3560
879	3783
879	3786
879	3801
879	3809
879	3814
879	4101
879	4186
879	4411
879	4502
879	4637
879	5107
879	5802
879	5803
879	5804
879	5805
880	1018
880	1028
880	1033
880	1188
880	1213
880	1235
880	1275
880	1294
880	1421
880	1471
880	1588
880	1589
880	1591
880	2057
880	2432
880	3047
881	1033
881	1178
881	1179
881	1198
881	1213
881	1248
881	1275
881	1294
881	1306
881	1353
881	1454
881	1587
881	1592
881	1796
881	1803
881	2492
881	3435
881	3507
881	5700
881	7075
881	7076
882	1720
882	5969
883	1424
883	1526
883	1607
883	1720
883	5224
884	1273
884	1388
884	1558
885	886
885	915
885	1213
885	1235
885	1755
885	5430
886	1213
886	1235
886	2464
886	2860
886	3922
886	4085
886	5430
887	1033
887	1145
887	1178
887	1179
887	1213
887	1258
887	1275
887	1282
887	1294
887	1353
887	1434
887	1590
887	1596
887	1597
887	1610
887	1611
887	2044
887	2061
887	2467
887	2493
887	2591
887	2674
887	3047
887	3283
887	3435
887	5702
888	1074
888	1178
888	1191
888	1195
888	1213
888	1428
888	1454
888	1576
888	2058
888	2085
888	2272
888	2522
888	2993
888	3048
889	1213
889	1235
889	1777
889	1816
889	3352
889	6374
890	894
890	1014
890	2337
890	2624
890	3588
890	3783
890	7270
890	7584
891	1033
891	1544
891	2491
891	3047
891	3960
891	5598
892	941
892	953
892	1840
892	1983
892	2201
892	3182
892	3811
892	3817
892	4455
892	5212
892	5250
892	5871
892	5872
892	6076
893	894
893	2257
893	3142
893	3783
894	1017
894	3783
895	2671
895	3013
896	1198
896	1414
896	1416
896	2130
897	898
897	1191
897	1213
897	1334
897	3224
897	5523
897	6040
898	1056
898	8701
899	1235
901	1047
901	1758
901	1826
901	1827
901	2250
901	2660
901	2730
901	3437
901	3438
901	3439
901	3442
901	4068
901	4069
901	4070
902	2525
902	3276
902	5452
902	5453
902	5787
902	6380
902	6381
902	7356
903	1036
903	8656
904	1946
904	2546
905	4169
906	1219
906	1221
906	2119
906	2233
906	2299
906	2430
906	2460
906	2731
906	2786
906	2866
906	3009
906	3494
906	3656
906	4520
906	4602
906	5625
908	2889
908	3380
908	4724
909	5131
911	917
911	922
911	1019
911	1467
911	2337
911	2525
911	2598
911	3318
911	3523
911	3572
911	3618
911	3657
911	4059
911	4087
911	4117
911	4356
911	4656
911	4786
911	4944
911	5124
911	6065
911	6070
911	6215
911	6710
911	6711
912	7039
914	932
914	1005
914	1341
914	1747
914	2043
914	2047
914	2072
914	2103
914	2113
914	2280
914	2349
914	2378
914	2387
914	2390
914	2391
914	2392
914	2398
914	2735
914	2814
914	2831
914	2867
914	3188
914	3244
914	3256
914	3257
914	3258
914	3259
914	3260
914	3261
914	3262
914	3263
914	3264
914	3265
915	1018
915	1191
915	1228
915	1241
915	1385
915	1418
915	1513
915	1610
915	1756
915	1825
915	1828
915	1929
915	1950
915	1996
915	2117
915	2147
915	2220
915	2246
915	2340
915	2380
915	2389
915	2391
915	2411
915	2429
915	2444
915	2571
915	2605
915	2619
915	2680
915	2722
915	2735
915	2738
915	2759
915	2853
915	2896
915	2913
915	2944
915	3222
915	3260
915	3433
915	3500
915	3501
915	3502
915	3503
915	3504
915	3505
915	3506
915	3507
915	3508
915	3509
915	3510
915	3511
915	3512
915	3513
915	3514
915	3515
915	3516
915	3517
915	3518
915	3519
915	3520
915	3521
915	3522
915	3523
915	3524
915	3525
915	3526
915	3527
915	3528
915	3529
915	3530
915	3531
915	3532
915	3533
915	3534
915	3535
915	3536
915	3537
915	3538
915	3539
915	3540
915	3541
915	3542
915	3543
915	3544
915	3545
915	3546
915	3547
915	3548
915	3549
915	3550
916	2451
916	2728
916	3629
916	3662
916	3663
916	3664
916	3665
917	947
917	1883
917	2349
917	2766
917	3465
917	3785
917	3827
917	4128
917	4390
917	4656
917	4737
917	4738
917	4739
917	4740
917	4741
917	4742
917	4743
917	4744
917	4745
917	4746
917	4747
917	4748
917	4749
917	4750
917	4751
918	964
918	1141
918	1338
918	1511
918	2078
918	2473
918	2475
918	2520
918	2527
918	2650
918	2718
918	3432
918	3971
918	4156
918	4708
918	4758
918	4759
918	4760
918	4761
918	4762
918	4763
918	4764
918	4765
918	4766
918	4767
918	4768
918	4769
918	4770
919	1023
919	1025
919	1222
919	1640
919	1853
919	2101
919	2615
919	2780
919	2788
919	2845
919	3150
919	3211
919	3311
919	3373
919	3447
919	3524
919	3782
919	3905
919	3913
919	3914
919	4233
919	4285
919	4914
919	5109
919	5110
919	5111
919	5112
919	5113
920	967
920	1004
920	1014
920	1024
920	1075
920	1095
920	1175
920	1249
920	1255
920	1276
920	1286
920	1341
920	1467
920	1565
920	1591
920	1851
920	1862
920	2071
920	2082
920	2083
920	2084
920	2093
920	2226
920	2276
920	2292
920	2337
920	2523
920	2791
920	3063
920	3383
920	4086
920	4845
920	4875
920	5273
920	5465
920	5466
920	5467
920	5468
920	5469
920	5470
920	5471
920	5472
921	1005
921	1055
921	1352
921	2041
921	3120
921	3151
921	3177
921	3287
921	3739
921	3742
921	3746
921	3751
921	3755
921	3760
921	4338
921	4575
921	5557
922	930
922	944
922	1338
922	1515
922	1615
922	1704
922	1832
922	1835
922	2047
922	2102
922	2106
922	2147
922	2162
922	2304
922	2343
922	2390
922	2434
922	2461
922	2598
922	2638
922	2643
922	2645
922	2778
922	2781
922	2918
922	2942
922	3063
922	3523
922	3703
922	3788
922	3925
922	3930
922	4109
922	4291
922	4359
922	4529
922	4633
922	5213
922	5240
922	5295
922	5669
922	5822
922	5938
922	5939
922	5940
922	5941
922	5942
922	5943
922	5944
922	5945
923	947
923	1006
923	1260
923	1531
923	1925
923	2012
923	2423
923	2637
923	2748
923	2804
923	2845
923	2952
923	3103
923	3207
923	3384
923	3510
923	3588
923	4147
923	4889
923	5176
923	5598
923	5827
923	5974
923	5975
924	1048
924	1201
924	1556
924	2065
924	2076
924	2172
924	4201
924	5877
924	6148
924	6149
925	1937
925	1945
925	2065
925	2164
925	2338
925	2392
925	4044
925	4046
925	4047
925	4128
925	6410
926	961
926	1005
926	1134
926	1341
926	1828
926	2010
926	2072
926	2177
926	2550
926	2559
926	2583
926	2698
927	1041
927	1195
927	1239
927	1262
927	3046
927	7258
928	1072
928	1097
928	1110
928	1138
928	1529
928	1953
928	2188
928	2625
928	3922
928	5606
928	7392
929	1184
929	1191
929	1220
929	1247
929	1926
929	3792
929	3794
929	4085
929	4166
929	4167
930	1918
930	5724
931	1005
931	1388
931	2047
931	2343
931	2352
931	2363
931	3788
932	1059
932	1258
932	1762
932	2222
932	2355
932	3284
932	5176
932	5671
932	6059
932	6144
932	6689
932	6797
932	7918
933	1015
933	1984
933	2854
933	2855
933	2856
933	2859
933	4660
933	7964
933	7965
933	7966
934	1608
934	2359
934	2710
934	3245
934	7971
935	1005
936	1028
936	1762
936	2093
936	3548
937	2821
938	2625
939	8542
940	941
940	942
940	943
941	954
941	962
941	973
941	979
941	991
941	1031
941	1163
941	1643
941	1757
941	1928
941	2012
941	2049
941	2383
941	2488
941	2579
941	2646
941	2956
941	3134
941	3202
941	3374
941	3499
941	3678
941	3679
941	3784
941	4591
941	4736
941	4883
941	5871
941	5872
941	5873
941	5874
941	5875
941	5876
942	968
942	973
942	978
942	1009
942	1031
942	1058
942	1734
942	1740
942	1753
942	1932
942	2257
942	4807
942	4821
942	4846
942	6188
942	6193
943	951
943	1168
943	1476
943	1587
943	1608
943	1923
943	2012
943	2112
943	2129
943	2497
943	2753
943	2954
943	3267
943	3476
943	3729
943	4301
943	4443
943	4850
943	5051
943	5052
943	5122
943	6184
943	6512
943	6733
943	7602
943	8562
944	1000
944	1002
944	1007
944	1011
944	1013
944	1034
944	1035
944	1055
944	1086
944	1105
944	1117
944	1197
944	1528
944	1529
944	1530
944	1531
944	1532
944	1533
944	1534
945	1000
945	1017
945	1079
945	1080
945	1412
945	1414
945	1439
945	1456
945	1521
945	1522
945	1525
945	1526
945	1553
945	1554
945	1555
945	1556
945	1557
945	1558
945	1559
945	1560
945	1561
945	1562
946	1192
946	1456
946	2085
946	2231
946	2710
947	1937
947	1950
947	1953
947	2066
947	2098
947	2336
947	2429
947	2820
947	2821
947	2822
947	2823
947	2824
947	2825
947	2826
948	1018
948	1228
948	1825
948	3609
948	3610
948	3611
949	957
949	1023
949	1061
949	1177
949	1195
949	1341
949	1530
949	1572
949	1615
949	1827
949	1828
949	1834
949	1838
949	1850
949	1855
949	1865
949	1873
949	2093
949	2835
949	2836
949	3016
949	3219
950	1836
951	953
951	965
951	973
951	990
951	993
951	1017
951	1028
951	1031
951	1048
951	1090
951	1167
951	1171
951	1389
951	1476
951	1587
951	1608
951	1617
951	1646
951	1649
951	1922
951	1923
951	1927
951	1928
951	1994
951	2424
951	2519
951	2538
951	2551
951	2821
951	3274
951	3318
951	3499
951	3681
951	3774
951	3790
951	4126
951	4349
951	4416
951	4444
951	4552
951	4840
951	4841
951	4842
951	4843
951	4844
951	4845
951	4846
951	4847
951	4848
951	4849
951	4850
951	4851
951	4852
951	4853
951	4854
951	4855
951	4856
951	4857
951	4858
951	4859
951	4860
951	4861
951	4862
951	4863
951	4864
951	4865
951	4866
951	4867
951	4868
951	4869
951	4870
951	4871
952	1615
952	2416
952	4365
952	5010
953	1036
953	1456
953	1583
953	1925
953	2012
953	2112
953	2389
953	2417
953	4042
953	5250
953	5276
953	5661
953	5871
953	5872
953	6038
954	958
954	969
954	993
954	997
954	1008
954	1037
954	1055
954	1060
954	1065
954	1081
954	1083
954	1087
954	1096
954	1097
954	1099
954	1112
954	1119
954	1120
954	1121
954	1123
954	1125
954	1130
954	1132
954	1165
954	1167
954	1170
954	1171
954	1472
954	1489
954	1513
954	1574
954	1587
954	1642
954	1643
954	1646
954	1649
954	1771
954	1787
954	1824
954	1925
954	1951
954	2221
954	2279
954	2424
954	2721
954	2753
954	2808
954	3070
954	3134
954	3202
954	3312
954	3318
954	3392
954	3408
954	3470
954	3819
954	4044
954	4115
954	4159
954	4379
954	4416
954	4814
954	4953
954	5373
954	5469
954	5485
954	5522
954	5707
954	6024
954	6039
954	6053
954	6054
954	6087
954	6088
954	6089
954	6090
954	6091
954	6092
954	6093
954	6094
954	6095
954	6096
954	6097
954	6098
955	1039
955	1042
955	1071
955	1079
955	1383
955	1476
955	1519
955	1693
955	1994
955	2143
955	3466
955	4955
955	6131
955	6132
955	6133
955	6134
955	6135
955	6136
956	965
956	1016
956	1191
956	1255
956	1291
956	1479
956	1622
956	1703
956	1776
956	1777
956	2416
956	3024
956	3326
956	3374
956	3577
956	4176
956	5227
956	5502
956	5839
956	6154
956	6155
956	6156
956	6157
956	6158
956	6159
956	6160
956	6161
957	1056
957	1169
957	1245
957	6373
957	6545
958	1071
958	1815
958	2022
958	2025
958	2417
958	2423
958	3018
958	4468
958	4692
958	4693
958	5003
958	5004
958	5015
958	6605
959	1018
959	1082
959	1842
959	4712
959	4866
959	6128
959	7115
959	7121
959	7122
960	1220
960	1446
960	2766
960	3291
960	3803
960	3822
960	3922
960	4532
960	5356
960	5443
960	5790
961	1012
961	1036
961	1177
961	1184
961	1214
961	1238
961	1244
961	1265
961	1347
961	1348
961	1390
961	1830
961	2002
961	2272
961	2351
961	3007
961	3507
961	3793
961	4176
961	4412
961	6075
961	6373
961	6489
962	969
962	2707
963	1005
963	1056
963	1241
963	2525
963	5845
963	6427
963	7238
963	7240
963	7241
964	1198
964	1414
964	1454
964	1834
964	2329
964	4708
964	5949
964	7326
965	1016
965	1097
965	1229
965	1255
965	1276
965	1317
965	1323
965	1384
965	1429
965	1609
965	1622
965	1717
965	1962
965	2241
965	2488
965	2529
965	3010
965	3013
965	3432
965	3521
965	3538
965	4192
965	4585
965	5523
965	5839
965	6154
965	6161
965	6321
965	6602
965	7370
965	7371
966	1322
966	1456
966	1574
966	1577
966	1578
966	1580
966	1804
966	3410
966	5373
966	5606
966	7390
966	7391
967	1010
967	1031
967	1220
967	1456
967	1804
967	2271
967	2684
967	3052
967	3333
967	3791
967	3987
967	4085
967	4165
967	5762
967	6798
967	7408
968	1456
968	2006
968	2317
968	3135
968	3764
968	4482
968	4816
968	6044
969	973
969	977
969	978
969	1009
969	1060
969	1168
969	1477
969	1649
969	1740
969	1931
969	1932
969	2257
969	2859
969	3202
969	3374
969	3635
969	4807
969	4883
969	5112
969	5113
969	5848
969	6185
969	6188
969	6639
969	7662
969	7663
969	7664
969	7665
970	1306
970	1307
970	1333
970	1396
970	2283
970	2416
970	2423
970	7745
971	1002
971	1036
971	1089
971	1210
971	1615
971	1858
971	2354
971	4875
971	6421
971	6775
971	7890
972	6551
973	1456
973	2012
974	2721
974	3282
975	1179
975	1198
975	1420
975	1449
975	1456
975	1712
975	3453
975	4729
975	6514
975	8437
976	1633
976	5309
976	7584
977	984
977	1072
977	1097
977	1101
977	1606
977	1684
977	2421
977	3421
977	5988
978	1036
978	1583
978	1740
978	1794
978	2012
978	5194
978	6562
978	7133
978	8643
979	1456
979	2012
979	2710
979	3374
979	6856
979	8334
980	3764
981	2666
981	3202
981	6009
981	8466
982	1036
982	3406
982	3432
984	5916
984	6767
984	7634
984	7778
984	8882
985	1074
985	3147
986	2012
986	5647
987	3970
987	4804
987	5477
988	3309
988	3805
989	1002
989	1089
989	1561
989	3006
990	2663
990	4146
990	4590
990	4780
990	5931
990	6557
990	6686
990	7331
990	7764
990	8457
990	8607
991	4192
992	3780
992	4574
992	6267
993	1606
993	2012
994	2012
995	1485
995	2012
999	1044
999	4147
1000	1001
1000	1002
1000	1003
1000	1007
1000	1094
1000	1176
1000	1177
1000	1178
1000	1179
1000	1180
1000	1181
1000	1182
1000	1183
1000	1184
1000	1185
1000	1186
1000	1187
1000	1188
1000	1189
1000	1190
1000	1191
1000	1192
1000	1193
1000	1194
1000	1195
1000	1196
1000	1197
1000	1198
1000	1199
1000	1200
1000	1201
1001	1180
1001	1236
1001	1494
1001	1523
1001	1544
1001	1545
1001	1546
1001	1547
1001	1548
1001	1549
1001	1550
1001	1551
1001	1552
1002	1008
1002	1035
1002	1066
1002	1105
1002	1108
1002	1198
1002	1249
1002	1271
1002	1291
1002	1476
1002	1509
1002	1513
1002	1524
1002	1554
1002	1563
1002	1564
1002	1565
1002	1566
1002	1567
1002	1568
1002	1569
1002	1570
1002	1571
1002	1572
1004	1010
1004	1043
1004	1058
1004	1192
1004	1383
1004	1546
1004	1565
1004	1753
1004	1865
1004	1926
1004	1970
1004	2172
1004	2291
1004	2292
1004	2293
1004	2294
1004	2295
1004	2296
1004	2297
1004	2298
1005	1028
1005	1053
1005	1192
1005	1197
1005	1210
1005	1230
1005	1233
1005	1237
1005	1241
1005	1242
1005	1249
1005	1265
1005	1271
1005	1309
1005	1315
1005	1317
1005	1336
1005	1338
1005	1343
1005	1347
1005	1352
1005	1355
1005	1357
1005	1363
1005	1364
1005	1373
1005	1374
1005	1378
1005	1380
1005	1381
1005	1388
1005	1395
1005	1414
1005	1417
1005	1425
1005	1472
1005	1615
1005	1847
1005	1848
1005	1953
1005	1972
1005	2047
1005	2147
1005	2163
1005	2199
1005	2235
1005	2245
1005	2291
1005	2341
1005	2349
1005	2351
1005	2352
1005	2353
1005	2354
1005	2357
1005	2358
1005	2360
1005	2361
1005	2363
1005	2366
1005	2367
1005	2368
1005	2369
1005	2374
1005	2375
1005	2383
1005	2429
1005	2435
1005	2439
1005	2597
1005	2598
1005	2599
1005	2600
1005	2601
1005	2602
1005	2603
1005	2604
1005	2605
1005	2606
1006	1027
1006	1059
1006	1085
1006	1086
1006	1338
1006	1451
1006	1536
1006	1724
1006	1727
1006	1739
1006	1827
1006	1828
1006	1962
1006	1993
1006	2299
1006	2439
1006	2532
1006	2620
1006	2829
1006	2830
1006	2841
1006	2842
1006	2843
1006	2844
1006	2845
1006	2846
1006	2847
1006	2848
1006	2849
1007	1010
1007	1011
1007	1027
1007	1036
1007	1039
1007	1056
1007	1066
1007	1069
1007	1141
1007	1187
1007	1195
1007	1620
1007	1672
1007	1732
1007	1736
1007	1754
1007	1973
1007	3009
1007	3010
1007	3011
1007	3012
1007	3013
1007	3014
1007	3015
1008	1172
1008	1348
1008	1349
1008	1359
1008	2049
1008	2416
1008	2423
1008	2601
1008	2767
1008	3000
1008	3291
1008	3292
1008	3293
1008	3294
1008	3295
1008	3296
1009	1198
1009	2708
1009	3386
1009	3387
1009	3388
1009	3389
1010	1029
1010	1034
1010	1054
1010	1073
1010	1798
1010	2115
1010	2143
1010	2519
1010	2522
1010	2573
1010	2698
1010	3922
1010	3923
1010	3924
1011	1014
1011	1016
1011	1039
1011	1041
1011	1141
1011	1195
1011	1418
1011	1703
1011	2337
1011	3947
1012	1197
1012	1208
1012	1233
1012	1244
1012	1286
1012	1337
1012	1362
1012	1386
1012	1404
1012	1409
1012	1523
1012	1610
1012	1615
1012	1807
1012	1827
1012	1828
1012	1829
1012	1996
1012	2079
1012	2164
1012	2183
1012	2336
1012	2600
1012	2870
1012	2949
1012	3316
1012	3563
1012	3570
1012	3681
1012	3684
1012	4174
1012	4175
1012	4176
1012	4177
1012	4178
1012	4179
1012	4180
1012	4181
1012	4182
1012	4183
1012	4184
1012	4185
1013	1035
1013	1185
1013	1221
1013	2553
1013	2776
1013	3360
1013	4260
1013	4261
1014	1016
1014	1019
1014	1025
1014	1032
1014	1116
1014	1210
1014	1236
1014	1240
1014	1264
1014	1305
1014	1341
1014	1348
1014	1414
1014	1418
1014	1485
1014	1546
1014	1565
1014	1585
1014	1612
1014	1657
1014	1750
1014	1828
1014	1843
1014	1849
1014	1973
1014	1974
1014	2012
1014	2047
1014	2093
1014	2143
1014	2146
1014	2153
1014	2167
1014	2343
1014	2345
1014	2361
1014	2384
1014	2434
1014	2550
1014	2559
1014	2617
1014	2618
1014	2644
1014	2766
1014	2781
1014	2841
1014	2850
1014	2894
1014	3081
1014	3207
1014	3245
1014	3276
1014	3305
1014	3368
1014	3433
1014	3560
1014	3562
1014	3574
1014	3576
1014	3579
1014	3585
1014	3656
1014	3695
1014	3718
1014	3732
1014	3754
1014	3786
1014	3787
1014	3796
1014	3797
1014	3801
1014	3805
1014	3809
1014	3812
1014	3814
1014	3835
1014	3845
1014	3862
1014	3863
1014	3865
1014	3868
1014	4101
1014	4130
1014	4170
1014	4180
1014	4359
1014	4636
1014	4637
1014	4638
1014	4639
1014	4640
1014	4641
1014	4642
1014	4643
1014	4644
1014	4645
1014	4646
1014	4647
1014	4648
1015	1740
1015	2112
1015	2267
1015	2291
1015	2730
1015	2732
1015	3247
1015	3256
1015	3811
1015	4116
1015	4795
1015	4796
1015	4797
1015	4798
1016	1026
1016	1055
1016	1244
1016	1838
1016	1839
1016	2172
1016	2362
1016	2475
1016	2526
1016	3261
1016	3262
1016	3902
1016	3905
1016	4174
1016	4497
1016	4530
1016	4912
1016	4913
1016	4914
1016	4915
1017	1191
1017	1505
1017	1529
1017	1546
1017	2112
1017	2176
1017	2177
1017	2417
1017	3017
1017	3147
1017	4731
1017	4918
1018	1024
1018	1029
1018	1049
1018	1050
1018	1051
1018	1052
1018	1061
1018	1062
1018	1063
1018	1064
1018	1115
1018	1177
1018	1191
1018	1196
1018	1197
1018	1198
1018	1203
1018	1230
1018	1236
1018	1238
1018	1242
1018	1244
1018	1248
1018	1249
1018	1250
1018	1251
1018	1343
1018	1344
1018	1346
1018	1386
1018	1387
1018	1401
1018	1412
1018	1478
1018	1522
1018	1563
1018	1573
1018	1604
1018	1688
1018	1692
1018	1719
1018	1727
1018	1744
1018	1751
1018	1752
1018	1793
1018	1794
1018	1829
1018	1833
1018	1838
1018	1839
1018	1843
1018	1972
1018	1983
1018	2010
1018	2013
1018	2143
1018	2164
1018	2188
1018	2191
1018	2337
1018	2346
1018	2347
1018	2411
1018	2564
1018	2601
1018	2842
1018	2844
1018	2993
1018	3010
1018	3024
1018	3044
1018	3103
1018	3111
1018	3134
1018	3240
1018	3315
1018	3393
1018	3433
1018	3488
1018	3512
1018	3524
1018	3566
1018	3567
1018	3568
1018	3570
1018	3571
1018	3591
1018	3609
1018	3787
1018	3922
1018	4149
1018	4174
1018	4274
1018	4283
1018	4298
1018	4497
1018	4655
1018	4656
1018	4659
1018	4661
1018	4889
1018	4912
1018	4923
1018	5130
1018	5131
1018	5132
1018	5133
1018	5134
1018	5135
1018	5136
1018	5137
1018	5138
1018	5139
1018	5140
1018	5141
1018	5142
1018	5143
1018	5144
1018	5145
1018	5146
1018	5147
1018	5148
1019	1088
1019	1418
1019	1686
1019	1832
1019	1835
1019	1946
1019	1952
1019	1984
1019	2048
1019	2111
1019	2112
1019	2143
1019	2164
1019	2168
1019	2337
1019	3148
1019	3643
1019	4079
1020	2112
1020	2666
1020	4930
1020	5276
1021	1034
1021	1054
1021	1195
1021	1620
1021	1738
1021	1792
1021	2022
1021	3128
1021	5352
1021	5353
1021	5354
1022	1147
1022	1148
1022	1993
1022	5419
1023	1195
1023	1232
1023	2176
1023	2177
1023	2568
1023	2870
1023	3150
1023	3373
1023	3526
1023	3782
1023	5440
1024	1025
1024	1026
1024	1451
1024	1544
1024	1688
1024	1789
1024	1790
1024	1791
1024	1836
1024	1993
1024	2046
1024	4836
1024	5483
1024	5484
1025	1031
1025	1070
1025	1082
1025	1083
1025	1114
1025	1132
1025	1239
1025	1249
1025	1275
1025	1313
1025	1368
1025	1410
1025	1451
1025	1573
1025	1577
1025	1712
1025	1719
1025	1720
1025	1760
1025	1792
1025	1808
1025	1832
1025	2037
1025	2054
1025	2103
1025	2401
1025	2424
1025	2520
1025	2544
1025	2574
1025	2641
1025	3312
1025	4172
1025	4276
1025	4499
1025	5161
1025	5478
1025	5485
1025	5486
1025	5487
1025	5488
1025	5489
1025	5490
1025	5491
1025	5492
1025	5493
1025	5494
1025	5495
1025	5496
1025	5497
1026	1082
1026	1410
1026	1573
1026	1993
1026	2054
1026	2484
1026	5483
1026	5502
1026	5503
1027	1028
1027	1732
1027	2794
1027	5142
1028	1091
1028	1191
1028	1210
1028	1344
1028	1417
1028	1427
1028	1686
1028	1723
1028	1828
1028	1869
1028	1993
1028	2093
1028	2345
1028	2402
1028	2870
1028	2943
1028	3265
1028	3283
1028	3453
1028	3527
1028	3550
1028	4087
1028	4624
1028	4834
1028	5428
1028	5597
1028	5598
1028	5599
1028	5600
1028	5601
1028	5602
1028	5603
1029	1054
1029	1061
1029	1196
1029	1228
1029	1280
1029	1353
1029	1615
1029	1732
1029	1760
1029	2144
1029	2189
1029	2625
1029	3198
1029	3261
1029	3922
1029	5483
1029	5604
1029	5605
1029	5606
1030	2520
1030	4940
1030	5667
1030	5668
1031	1036
1031	1046
1031	1159
1031	1220
1031	1233
1031	1256
1031	1410
1031	1456
1031	2480
1031	2710
1031	3374
1031	3412
1032	1040
1032	1049
1032	1073
1032	1129
1032	1451
1032	1530
1032	1690
1032	1703
1032	2337
1032	4961
1032	5800
1032	5801
1033	1181
1033	1184
1033	1315
1033	1353
1033	1395
1033	1425
1033	1605
1033	2056
1033	2676
1033	2989
1033	4804
1033	5845
1033	5846
1033	5847
1034	1040
1034	1069
1034	1101
1034	1174
1034	1195
1034	1208
1034	1211
1034	1230
1034	1254
1034	1255
1034	1337
1034	1384
1034	1451
1034	1458
1034	1535
1034	1553
1034	1588
1034	1712
1034	1719
1034	1721
1034	1724
1034	1725
1034	1727
1034	1728
1034	1730
1034	1779
1034	1789
1034	1795
1034	1797
1034	1799
1034	1809
1034	1817
1034	1843
1034	1962
1034	1996
1034	1998
1034	2221
1034	2224
1034	2316
1034	2419
1034	2524
1034	2700
1034	2781
1034	3395
1034	3959
1034	4585
1034	4959
1034	4970
1034	5352
1034	5838
1034	5890
1034	5891
1034	5892
1034	5893
1034	5894
1034	5895
1034	5896
1034	5897
1034	5898
1035	1105
1035	1533
1035	2172
1035	3196
1036	1039
1036	1041
1036	1048
1036	1120
1036	1165
1036	1166
1036	1167
1036	1168
1036	1192
1036	1197
1036	1233
1036	1360
1036	1409
1036	1415
1036	1520
1036	1587
1036	1608
1036	1649
1036	1656
1036	1690
1036	1757
1036	1922
1036	2006
1036	2012
1036	2153
1036	2257
1036	2439
1036	2577
1036	2785
1036	2851
1036	3016
1036	3145
1036	3301
1036	3374
1036	3721
1036	4812
1036	4826
1036	4850
1036	5252
1036	6039
1036	6040
1036	6041
1036	6042
1036	6043
1036	6044
1036	6045
1036	6046
1036	6047
1036	6048
1036	6049
1036	6050
1036	6051
1036	6052
1036	6053
1036	6054
1037	1044
1037	1606
1037	1732
1037	1780
1037	1899
1037	2112
1037	2416
1037	5485
1037	5708
1037	6083
1038	1182
1038	1740
1038	1802
1038	2538
1038	3395
1038	3439
1038	3899
1038	3957
1038	3961
1038	3973
1038	3974
1038	3977
1038	4112
1038	4216
1038	4713
1038	4728
1038	5193
1038	5365
1038	5370
1038	6105
1038	6106
1038	6107
1039	1041
1039	1046
1039	1082
1039	1084
1039	1114
1039	1134
1039	1186
1039	1222
1039	1344
1039	1470
1039	1693
1039	1694
1039	1698
1039	1699
1039	1703
1039	1716
1039	1792
1039	2422
1039	2574
1039	2988
1039	3467
1039	4914
1039	5465
1039	5820
1039	6108
1039	6109
1040	1041
1040	1230
1040	1254
1040	1255
1040	1458
1040	1535
1040	1545
1040	1573
1040	1590
1040	1719
1040	1724
1040	1754
1040	1783
1040	1795
1040	1799
1040	1995
1040	2233
1040	3023
1040	4215
1040	5895
1041	1067
1041	1072
1041	1078
1041	1084
1041	1094
1041	1099
1041	1110
1041	1164
1041	1186
1041	1195
1041	1235
1041	1275
1041	1322
1041	1409
1041	1493
1041	1535
1041	1536
1041	1588
1041	1703
1041	1712
1041	1714
1041	1732
1041	1779
1041	1995
1041	3041
1041	3050
1041	3303
1041	3393
1041	6139
1041	6140
1041	6141
1041	6142
1042	1056
1042	1073
1042	1417
1042	1693
1042	1994
1042	3383
1042	3446
1042	3975
1042	6150
1042	6151
1042	6152
1042	6153
1043	1044
1043	1195
1043	1456
1043	1899
1043	2294
1044	1045
1044	1051
1044	1060
1044	1065
1044	1083
1044	1090
1044	1097
1044	1099
1044	1111
1044	1112
1044	1119
1044	1120
1044	1132
1044	1145
1044	1157
1044	1161
1044	1165
1044	1166
1044	1171
1044	1510
1044	1642
1044	1671
1044	1757
1044	1785
1044	1787
1044	1920
1044	1922
1044	1927
1044	1928
1044	1934
1044	1951
1044	3074
1044	3134
1044	3223
1044	3303
1044	3312
1044	3740
1044	3781
1044	4301
1044	4463
1044	4575
1044	4603
1044	4814
1044	4816
1044	4852
1044	5314
1044	5767
1044	5972
1044	6050
1044	6100
1044	6193
1044	6194
1044	6195
1044	6196
1044	6197
1044	6198
1044	6199
1045	1111
1045	1124
1045	1145
1045	1161
1045	3074
1045	3454
1045	4729
1045	6289
1046	1084
1046	1694
1046	1698
1046	1699
1046	1703
1047	1828
1047	2340
1047	2373
1047	2730
1047	2889
1047	3198
1047	3227
1047	4346
1047	4542
1047	4640
1047	4720
1047	4721
1047	4722
1047	6128
1047	6424
1047	6425
1047	6426
1048	1583
1048	1660
1048	2012
1048	2032
1048	2037
1048	2159
1048	2417
1048	3450
1048	3518
1048	6570
1048	6571
1048	6572
1048	6573
1048	6574
1048	6575
1048	6576
1048	6577
1049	1052
1049	1062
1049	1073
1049	1075
1049	1220
1049	1228
1049	1235
1049	1240
1049	1509
1049	1690
1049	1828
1049	1845
1049	1957
1049	2047
1049	2134
1049	2164
1049	2579
1049	2753
1049	3255
1049	3282
1049	3406
1049	3913
1049	3922
1049	4084
1049	4965
1049	5418
1049	6580
1049	6581
1049	6582
1049	6583
1050	1195
1050	1458
1050	5719
1050	6039
1050	6607
1050	6608
1051	1228
1051	1456
1051	1606
1051	2112
1051	2416
1051	2423
1051	3393
1052	1053
1052	1115
1052	1228
1052	1236
1052	1243
1052	1478
1052	1615
1052	1719
1052	1751
1052	1839
1052	1841
1052	2010
1052	2013
1052	2143
1052	2223
1052	3010
1052	3103
1052	3393
1052	3521
1052	3568
1052	3788
1052	3891
1052	4149
1052	4503
1052	4660
1052	5132
1052	5134
1052	6110
1052	6384
1052	6631
1052	6632
1052	6633
1052	6634
1052	6635
1053	1062
1053	1186
1053	1792
1053	2189
1053	2522
1054	1074
1054	1082
1054	1102
1054	1114
1054	1181
1054	1191
1054	1254
1054	1275
1054	1409
1054	1410
1054	1451
1054	1600
1054	1688
1054	1719
1054	1792
1054	1842
1054	2077
1054	2581
1054	3922
1054	4148
1054	4152
1054	4712
1054	5505
1054	6395
1054	6669
1054	6670
1054	6671
1054	6672
1055	1082
1055	1191
1055	1195
1055	1245
1055	1409
1055	1430
1055	1441
1055	1471
1055	1472
1055	1606
1055	1627
1055	1744
1055	1754
1055	1766
1055	1977
1055	2112
1055	2344
1055	2362
1055	2421
1055	2484
1055	2517
1055	2645
1055	3177
1055	4237
1055	4722
1055	4842
1055	5502
1055	6689
1055	6690
1055	6691
1055	6692
1055	6693
1055	6694
1055	6695
1055	6696
1055	6697
1056	1116
1056	1181
1056	1191
1056	1209
1056	1213
1056	1217
1056	1235
1056	1236
1056	1241
1056	1245
1056	1266
1056	1284
1056	1296
1056	1316
1056	1326
1056	1334
1056	1335
1056	1430
1056	1454
1056	1504
1056	1610
1056	1744
1056	1746
1056	1761
1056	2492
1056	2582
1056	2583
1056	2678
1056	2963
1056	4041
1056	4802
1057	1357
1057	2295
1057	2891
1057	3925
1057	4529
1057	6707
1058	1082
1058	1100
1058	1178
1058	1191
1058	1235
1058	1286
1058	1409
1058	1512
1058	1727
1058	1748
1058	1753
1058	1776
1058	1858
1058	1963
1058	2079
1058	2080
1058	2086
1058	2143
1058	2356
1058	2434
1058	2623
1058	2698
1058	2920
1058	3814
1058	4107
1058	4759
1058	4760
1058	5091
1058	5098
1058	6724
1059	1838
1059	2349
1059	3053
1059	3262
1059	3910
1059	5510
1059	6725
1060	1697
1060	1740
1060	1841
1060	3365
1060	3374
1060	3919
1060	4966
1060	5127
1060	6163
1060	6676
1060	6737
1060	6738
1061	1089
1061	1090
1061	1275
1061	1625
1061	1637
1061	4165
1061	6767
1061	6768
1061	6769
1062	1195
1062	1418
1062	1702
1062	2522
1062	3803
1062	6770
1063	1191
1063	1240
1063	1604
1063	6170
1063	6771
1063	6772
1064	1084
1064	2221
1064	2224
1064	2225
1064	2372
1065	1456
1065	1606
1065	1719
1065	1899
1065	2112
1065	2416
1065	2421
1065	4061
1065	5708
1065	6083
1066	1569
1066	1616
1066	1719
1066	1946
1066	2355
1066	2813
1066	3311
1066	3456
1066	3914
1066	4381
1066	4904
1066	5212
1066	6016
1066	6346
1066	6347
1066	6348
1066	6786
1066	6787
1066	6788
1067	1179
1067	1195
1067	1458
1067	2047
1067	2050
1068	1146
1068	1829
1068	3819
1069	1732
1069	6863
1070	1545
1070	4881
1070	5481
1070	6878
1071	1079
1071	1082
1071	1114
1071	1451
1071	1519
1071	1731
1071	1790
1071	1951
1071	2418
1071	2419
1071	2422
1071	2859
1071	3019
1071	3467
1071	4857
1071	4859
1071	5089
1071	5353
1071	5517
1071	5848
1071	6088
1071	6114
1071	6132
1071	6155
1071	6893
1072	1088
1072	1101
1072	1506
1072	1575
1072	1588
1072	1731
1072	1801
1072	2422
1072	3011
1072	3937
1072	4955
1072	5672
1072	5773
1072	5888
1072	6808
1072	6894
1073	1604
1073	1690
1073	1691
1073	1703
1073	1731
1073	1843
1073	1844
1073	2006
1073	2355
1073	2524
1073	2695
1073	2729
1073	2960
1073	3019
1073	3450
1073	3469
1073	3551
1073	4084
1073	4412
1073	4597
1073	4794
1073	4958
1073	4971
1073	5135
1073	5224
1073	5512
1073	5681
1073	6591
1073	6617
1073	6905
1073	6906
1073	6907
1073	6908
1073	6909
1073	6910
1074	1109
1074	1555
1074	1561
1074	2223
1074	2227
1074	3147
1074	3303
1074	3357
1074	5529
1074	6638
1074	6932
1074	6933
1074	6934
1075	1191
1075	1195
1075	1220
1075	1254
1075	1409
1075	1535
1075	1539
1075	1540
1075	1543
1075	1611
1075	1699
1075	1955
1075	2223
1075	2829
1075	2883
1075	3303
1075	3395
1075	3405
1075	3406
1075	5281
1075	6935
1075	6936
1075	6937
1076	2780
1077	2267
1077	2269
1077	2732
1077	3247
1078	1256
1078	1453
1078	1699
1078	1703
1078	1710
1078	1792
1078	1980
1078	2073
1078	2422
1078	2988
1078	3467
1078	5820
1078	6109
1079	1114
1079	1505
1079	1564
1079	1689
1079	1694
1079	4276
1079	7029
1079	7030
1080	1410
1080	1571
1080	1606
1080	1720
1080	1754
1080	1766
1080	2890
1080	4457
1080	5452
1080	7080
1081	1899
1081	2034
1081	2112
1081	2165
1081	2242
1081	2438
1081	2621
1081	2812
1081	2927
1081	3845
1082	1114
1082	1115
1082	1177
1082	1210
1082	1249
1082	1275
1082	1434
1082	1451
1082	1699
1082	1716
1082	1792
1082	1842
1082	1951
1082	2422
1082	2875
1082	3467
1082	5486
1082	6557
1082	7115
1083	1456
1083	1606
1083	1831
1083	1842
1083	1899
1083	2112
1083	2416
1083	2421
1083	2423
1083	2710
1083	3110
1083	5276
1083	6083
1083	6562
1083	7116
1084	1200
1084	1698
1084	1716
1084	4502
1085	1995
1086	1712
1086	1995
1086	1996
1086	7135
1087	1346
1087	1409
1087	1944
1087	6629
1087	7194
1088	1099
1088	1101
1088	1506
1088	1519
1088	1575
1088	1588
1088	3011
1088	3047
1088	4955
1088	6808
1088	6813
1088	7195
1088	7196
1090	1456
1090	1606
1090	1899
1090	2112
1090	2416
1090	2421
1090	2710
1090	3110
1090	5276
1090	6083
1090	7210
1091	1350
1091	1359
1091	4986
1092	2013
1092	4298
1092	6558
1093	1192
1093	7259
1094	1521
1094	1696
1094	1747
1094	2836
1094	2920
1094	3022
1095	5273
1096	2962
1096	4147
1096	5430
1097	1220
1097	1426
1097	1644
1097	1702
1097	1740
1097	1899
1097	1921
1097	1926
1097	2075
1097	2112
1097	2585
1097	2694
1097	2785
1097	3296
1097	3306
1097	3309
1097	4666
1097	5289
1097	5430
1097	5432
1097	5498
1097	5883
1097	6021
1097	6046
1097	6056
1097	6057
1097	6060
1097	6361
1097	6504
1097	6621
1097	6984
1097	7253
1097	7254
1098	3953
1098	6570
1098	7351
1099	1195
1099	1410
1099	1588
1099	2054
1099	2416
1099	2484
1099	3011
1099	3019
1099	6075
1100	1192
1100	1286
1100	1657
1100	1732
1100	1753
1100	1767
1100	2066
1100	2068
1100	2080
1100	2092
1100	2094
1100	2315
1100	2337
1100	2579
1100	2950
1101	1588
1101	2695
1101	3011
1101	3019
1101	3396
1102	1220
1102	1703
1102	1801
1102	2422
1102	3011
1102	3687
1102	7198
1103	1195
1103	1197
1103	1335
1103	1441
1103	1546
1103	1777
1103	2522
1103	3375
1103	3567
1103	4875
1104	2685
1104	7212
1104	7213
1105	1155
1105	1196
1105	1215
1105	1248
1105	1387
1105	1400
1105	1507
1105	1521
1105	2527
1105	4969
1105	5531
1105	7654
1106	1240
1106	1249
1106	1270
1106	1281
1106	1576
1106	1579
1106	1717
1106	1754
1106	1772
1106	1975
1106	2127
1106	2276
1106	2416
1106	3048
1106	3398
1106	3610
1106	5708
1106	5711
1106	5712
1106	6305
1106	6819
1106	6821
1106	7690
1106	7691
1107	1191
1107	1440
1107	1977
1107	2700
1108	1301
1108	1387
1109	1409
1109	3288
1110	1696
1110	2341
1110	2668
1110	3012
1110	3694
1110	6001
1110	7854
1110	7855
1111	1124
1111	1145
1111	1157
1111	1161
1111	1286
1111	2047
1111	2385
1111	3074
1111	3788
1111	4494
1111	4641
1112	1456
1112	1619
1112	1654
1112	2112
1112	2416
1112	7947
1113	1606
1113	2112
1113	2421
1114	1451
1114	1519
1114	1697
1114	1732
1114	1789
1114	1792
1114	1797
1114	4276
1114	5424
1114	6801
1115	1188
1115	1223
1115	1606
1115	1857
1115	1865
1115	2012
1115	2112
1115	2421
1115	2637
1115	4174
1115	5132
1115	6083
1115	6542
1115	7116
1115	7928
1116	1204
1116	1239
1116	1418
1116	1451
1116	1457
1116	1488
1116	1489
1116	1490
1116	1491
1116	1569
1116	2048
1116	2337
1116	3218
1117	1528
1117	7139
1118	8113
1118	8114
1119	2112
1119	2416
1119	4998
1119	8128
1120	1456
1120	1583
1120	2416
1120	2417
1120	2421
1121	1456
1121	1606
1121	1899
1121	2112
1121	2416
1121	4407
1121	6083
1122	1189
1122	1606
1122	1899
1122	2112
1122	2416
1122	5771
1122	6083
1122	8182
1123	1606
1123	2112
1123	2511
1123	4633
1123	4788
1123	5276
1123	8188
1123	8189
1124	1145
1124	1157
1124	1161
1124	1306
1124	1928
1124	2813
1124	3074
1124	4998
1125	1606
1125	1616
1125	1899
1125	2112
1125	2416
1125	2771
1125	3057
1125	3557
1125	4233
1125	4507
1125	7334
1125	7335
1125	7336
1125	7337
1125	8208
1126	2373
1126	2860
1126	6118
1127	1191
1128	1191
1128	2480
1128	8246
1129	1338
1129	1703
1129	2875
1129	3283
1130	2416
1130	3211
1130	6083
1130	8297
1130	8298
1131	1760
1132	1188
1132	1456
1132	1606
1132	1899
1132	2112
1132	2416
1132	2421
1132	2423
1132	2579
1132	2710
1132	2860
1132	3110
1132	3609
1132	6083
1132	6562
1132	6589
1132	7116
1132	8323
1133	2276
1133	2698
1133	3398
1134	1214
1134	1727
1134	1774
1134	1925
1134	2290
1134	4101
1134	4103
1134	4180
1134	4580
1134	5674
1134	7471
1134	8350
1135	1232
1135	2568
1136	1159
1136	1181
1136	1875
1136	1933
1136	2604
1136	5227
1136	6345
1136	8393
1136	8394
1137	3694
1137	5356
1138	1220
1138	7736
1138	7737
1140	1162
1141	1370
1141	1455
1141	1834
1141	2029
1141	2415
1141	2433
1141	2835
1141	2996
1141	3029
1141	3918
1141	4708
1141	4711
1141	4760
1141	5096
1141	5119
1141	5136
1141	5488
1141	6036
1141	6419
1141	6659
1141	6703
1141	6963
1141	7830
1141	8415
1141	8416
1141	8417
1141	8418
1142	5893
1143	4802
1144	4804
1144	6012
1144	6283
1144	7181
1144	7183
1145	1157
1145	1161
1145	1181
1145	1184
1145	1428
1145	2491
1145	2558
1145	3074
1145	3970
1145	5504
1146	3819
1147	1148
1147	1197
1147	7367
1148	5420
1148	7367
1150	1941
1150	5285
1150	7729
1151	2172
1151	2859
1152	1429
1152	5708
1153	8436
1154	6509
1156	8438
1157	1161
1157	1535
1157	1555
1157	1785
1157	3074
1157	3303
1157	3388
1157	4215
1157	5092
1157	6638
1159	1664
1159	2012
1159	3374
1159	4732
1159	6793
1159	7088
1160	6880
1161	3074
1161	5092
1162	1198
1162	2022
1162	2025
1162	5166
1162	7225
1162	7331
1162	8454
1163	1188
1163	1583
1163	2416
1163	2417
1163	2480
1163	4147
1164	1253
1164	1322
1164	1696
1164	1779
1164	3022
1164	3023
1164	6139
1165	1188
1165	1456
1165	1583
1165	1653
1165	2012
1165	2112
1165	2416
1165	2417
1165	2421
1165	3374
1165	6202
1165	7609
1165	7619
1165	8564
1166	1456
1166	1583
1166	1606
1166	1899
1166	2012
1166	2417
1166	2423
1166	2695
1166	3071
1166	5276
1166	5319
1166	5492
1166	6009
1166	6083
1166	6632
1167	1456
1167	2012
1167	3283
1167	3456
1167	5616
1168	1740
1168	3374
1168	4147
1168	6798
1169	1239
1169	1424
1169	1457
1169	1494
1169	5021
1169	5024
1170	1188
1170	1606
1170	2112
1170	2423
1171	2112
1171	2423
1171	2710
1171	5276
1172	1456
1172	2112
1172	2505
1174	1195
1174	1226
1174	1458
1175	1851
1176	1197
1176	1202
1176	1203
1176	1204
1176	1205
1176	1206
1176	1207
1177	1178
1177	1191
1177	1213
1177	1221
1177	1237
1177	1241
1177	1248
1177	1265
1177	1294
1177	1348
1177	1381
1177	1382
1177	1383
1177	1384
1177	1385
1177	1386
1177	1387
1177	1388
1177	1389
1177	1390
1177	1391
1177	1392
1177	1393
1177	1394
1177	1395
1177	1396
1177	1397
1177	1398
1177	1399
1177	1400
1177	1401
1177	1402
1177	1403
1177	1404
1177	1405
1177	1406
1177	1407
1177	1408
1178	1181
1178	1184
1178	1188
1178	1191
1178	1198
1178	1204
1178	1235
1178	1254
1178	1409
1178	1410
1178	1411
1178	1412
1178	1413
1178	1414
1178	1415
1178	1416
1178	1417
1178	1418
1178	1419
1178	1420
1178	1421
1178	1422
1178	1423
1178	1424
1178	1425
1178	1426
1178	1427
1178	1428
1178	1429
1178	1430
1178	1431
1178	1432
1178	1433
1178	1434
1178	1435
1178	1436
1178	1437
1178	1438
1179	1188
1179	1198
1179	1204
1179	1254
1179	1255
1179	1271
1179	1274
1179	1413
1179	1416
1179	1419
1179	1420
1179	1424
1179	1425
1179	1426
1179	1429
1179	1430
1179	1434
1179	1438
1179	1439
1179	1440
1179	1441
1179	1442
1179	1443
1179	1444
1179	1445
1179	1446
1179	1447
1179	1448
1179	1449
1180	1582
1180	1583
1180	1584
1180	1585
1180	1586
1181	1188
1181	1194
1181	1213
1181	1235
1181	1275
1181	1282
1181	1294
1181	1296
1181	1310
1181	1410
1181	1421
1181	1424
1181	1427
1181	1454
1181	1587
1181	1588
1181	1589
1181	1590
1181	1591
1181	1592
1181	1593
1181	1594
1181	1595
1181	1596
1181	1597
1181	1598
1181	1599
1181	1600
1181	1601
1181	1602
1182	1194
1182	1526
1182	1603
1182	1604
1182	1605
1182	1606
1182	1607
1183	1505
1183	1608
1183	1609
1184	1213
1184	1275
1184	1294
1184	1410
1184	1428
1184	1588
1184	1590
1184	1593
1184	1598
1184	1610
1184	1611
1184	1612
1184	1613
1184	1614
1185	1567
1185	1615
1185	1616
1185	1617
1185	1618
1186	1219
1186	1470
1186	1619
1186	1620
1186	1621
1186	1622
1186	1623
1187	1633
1188	1189
1188	1194
1188	1195
1188	1221
1188	1315
1188	1413
1188	1414
1188	1415
1188	1416
1188	1429
1188	1439
1188	1479
1188	1594
1188	1603
1188	1634
1188	1635
1188	1636
1188	1637
1188	1638
1188	1639
1188	1640
1188	1641
1188	1642
1188	1643
1188	1644
1188	1645
1188	1646
1188	1647
1188	1648
1188	1649
1188	1650
1188	1651
1188	1652
1188	1653
1188	1654
1188	1655
1188	1656
1188	1657
1188	1658
1188	1659
1188	1660
1188	1661
1188	1662
1188	1663
1188	1664
1188	1665
1188	1666
1188	1667
1188	1668
1188	1669
1188	1670
1188	1671
1189	1195
1189	1206
1189	1453
1189	1672
1189	1673
1189	1674
1189	1675
1189	1676
1189	1677
1189	1678
1189	1679
1190	1680
1191	1192
1191	1197
1191	1198
1191	1214
1191	1216
1191	1246
1191	1282
1191	1311
1191	1314
1191	1375
1191	1409
1191	1410
1191	1412
1191	1425
1191	1450
1191	1539
1191	1573
1191	1579
1191	1615
1191	1702
1191	1744
1191	1745
1191	1746
1191	1747
1191	1748
1191	1749
1191	1750
1191	1751
1191	1752
1191	1753
1191	1754
1191	1755
1191	1756
1191	1757
1191	1758
1191	1759
1191	1760
1191	1761
1191	1762
1191	1763
1191	1764
1191	1765
1191	1766
1191	1767
1191	1768
1191	1769
1191	1770
1191	1771
1191	1772
1191	1773
1191	1774
1191	1775
1191	1776
1191	1777
1191	1778
1192	1194
1192	1198
1192	1209
1192	1210
1192	1211
1192	1212
1192	1213
1192	1214
1192	1215
1192	1255
1192	1315
1192	1336
1192	1381
1192	1409
1192	1417
1192	1427
1192	1515
1192	1610
1192	1685
1192	1686
1192	1687
1192	1717
1192	1719
1192	1822
1192	1943
1192	1944
1192	1945
1192	1946
1192	1947
1192	1948
1192	1949
1192	1950
1192	1951
1192	1952
1192	1953
1192	1954
1192	1955
1192	1956
1192	1957
1192	1958
1192	1959
1192	1960
1192	1961
1192	1962
1192	1963
1192	1964
1192	1965
1192	1966
1192	1967
1192	1968
1192	1969
1192	1970
1192	1971
1192	1972
1192	1973
1192	1974
1192	1975
1192	1976
1192	1977
1192	1978
1192	1979
1192	1980
1192	1981
1192	1982
1193	1344
1193	1349
1193	1354
1193	1355
1193	1856
1193	1857
1193	2998
1193	2999
1193	3000
1193	3001
1193	3002
1193	3003
1194	1198
1194	1208
1194	1247
1194	1283
1194	1416
1194	1645
1194	2905
1195	1197
1195	1198
1195	1208
1195	1227
1195	1230
1195	1239
1195	1242
1195	1245
1195	1246
1195	1247
1195	1252
1195	1275
1195	1291
1195	1383
1195	1388
1195	1412
1195	1421
1195	1457
1195	1480
1195	1482
1195	1535
1195	1536
1195	1589
1195	1591
1195	1610
1195	1616
1195	1626
1195	1672
1195	1696
1195	1712
1195	1719
1195	1736
1195	1739
1195	1754
1195	1780
1195	1855
1195	2047
1195	2165
1195	2221
1195	2236
1195	2461
1195	2489
1195	2553
1195	2715
1195	2883
1195	2995
1195	3016
1195	3017
1195	3018
1195	3019
1195	3020
1195	3021
1195	3022
1195	3023
1195	3024
1195	3025
1195	3026
1195	3027
1195	3028
1195	3029
1195	3030
1195	3031
1195	3032
1195	3033
1195	3034
1195	3035
1195	3036
1195	3037
1195	3038
1195	3039
1195	3040
1195	3041
1195	3042
1195	3043
1195	3044
1195	3045
1196	1215
1196	1289
1196	1291
1196	1307
1196	1805
1196	2705
1196	2955
1196	3041
1196	3059
1197	1208
1197	1219
1197	1228
1197	1270
1197	1313
1197	1338
1197	1381
1197	1389
1197	1462
1197	1528
1197	1531
1197	1532
1197	1628
1197	1687
1197	1689
1197	1714
1197	1715
1197	1732
1197	1775
1197	1795
1197	1927
1197	2047
1197	2268
1197	2275
1197	2390
1197	2511
1197	2713
1197	3186
1197	3320
1197	3620
1197	3823
1197	4976
1197	4977
1197	4978
1197	4979
1197	4980
1198	1233
1198	1239
1198	1252
1198	1272
1198	1381
1198	1414
1198	1415
1198	1416
1198	1420
1198	1429
1198	1437
1198	1439
1198	1449
1198	1454
1198	1455
1198	1464
1198	1465
1198	1466
1198	1471
1198	1483
1198	1610
1198	1715
1198	2273
1198	2298
1198	2483
1198	2522
1198	3332
1198	5856
1198	6371
1198	6722
1198	7439
1199	1423
1199	1535
1199	7168
1199	7169
1200	2553
1200	2595
1200	8221
1201	1221
1201	1274
1201	1546
1201	1740
1201	2338
1201	2704
1201	2879
1201	3000
1201	3406
1201	3474
1201	3687
1201	4217
1201	4271
1201	5080
1201	5111
1201	5491
1201	7355
1201	7835
1201	8313
1201	8314
1201	8315
1201	8316
1202	1983
1202	2108
1202	2120
1202	2141
1202	2188
1202	2190
1202	2205
1202	3273
1202	4227
1202	5213
1202	5280
1202	5342
1203	1228
1203	1687
1203	6649
1204	1239
1204	1436
1204	1457
1204	1482
1204	1488
1204	1489
1204	1490
1204	1491
1204	1715
1204	2698
1204	2699
1204	3106
1204	4929
1204	7778
1206	2107
1206	2116
1207	1628
1207	1694
1207	2463
1207	3924
1207	8340
1208	1209
1208	1246
1208	1247
1208	1384
1208	1423
1208	1450
1208	1505
1208	1526
1208	1607
1208	1719
1208	1720
1208	1721
1208	1722
1209	1261
1209	1337
1209	1410
1209	1412
1209	1606
1209	2129
1209	2130
1209	2131
1210	1306
1210	1310
1210	1357
1210	1425
1210	1615
1210	1825
1210	1828
1210	1865
1210	1955
1210	1973
1210	1984
1210	2047
1210	2072
1210	2113
1210	2143
1210	2147
1210	2180
1210	2183
1210	2300
1210	2337
1210	2354
1210	2356
1210	2358
1210	2377
1210	2378
1210	2379
1210	2380
1210	2381
1210	2382
1210	2383
1210	2384
1210	2385
1210	2386
1210	2387
1210	2388
1210	2389
1210	2390
1210	2391
1210	2392
1210	2393
1210	2394
1210	2395
1210	2396
1210	2397
1210	2398
1210	2399
1210	2400
1210	2401
1210	2402
1210	2403
1210	2404
1210	2405
1210	2406
1210	2407
1210	2408
1210	2409
1210	2410
1210	2411
1210	2412
1210	2413
1210	2414
1212	1702
1212	1747
1212	1835
1212	1946
1212	1954
1212	1984
1212	2115
1212	2147
1212	2207
1212	2457
1212	2637
1212	2659
1212	2660
1212	2661
1212	2662
1212	2663
1212	2664
1212	2665
1212	2666
1213	1233
1213	1282
1213	1314
1213	1353
1213	1409
1213	1412
1213	1422
1213	1425
1213	1428
1213	1431
1213	1433
1213	1435
1213	1573
1213	1598
1213	1610
1213	2044
1213	2270
1213	2414
1213	2674
1213	2675
1213	2676
1213	2677
1213	2678
1213	2679
1213	2680
1214	1238
1214	1344
1214	1357
1214	1360
1214	2273
1214	2361
1214	2550
1214	2559
1214	2582
1214	2698
1214	2699
1214	2700
1214	2701
1214	2702
1214	2703
1216	1217
1216	1767
1216	2092
1216	2671
1216	2713
1216	2714
1216	2715
1216	2716
1216	2717
1216	2718
1216	2719
1217	1313
1217	1515
1217	2433
1217	2670
1217	2671
1217	2718
1217	2719
1219	1381
1219	1462
1219	1573
1219	1720
1219	1734
1219	2276
1219	2558
1219	3188
1219	3189
1219	3190
1219	3191
1220	1289
1220	1325
1220	1611
1220	1702
1220	1775
1220	1792
1220	1801
1220	1855
1220	2479
1220	2524
1220	3336
1220	3392
1220	3393
1220	3394
1220	3395
1220	3396
1220	3397
1220	3398
1220	3399
1220	3400
1220	3401
1220	3402
1220	3403
1220	3404
1220	3405
1220	3406
1220	3407
1220	3408
1220	3409
1220	3410
1220	3411
1220	3412
1220	3413
1220	3414
1220	3415
1220	3416
1220	3417
1220	3418
1220	3419
1220	3420
1221	1382
1221	1390
1221	1398
1221	1625
1221	1838
1221	2094
1221	2219
1221	2385
1221	2433
1221	2473
1221	2867
1221	3019
1221	3116
1221	3894
1221	3895
1221	3896
1221	3897
1221	3898
1221	3899
1221	3900
1222	3446
1222	3449
1222	3450
1222	3936
1222	3937
1223	1865
1223	2384
1223	2388
1223	2962
1223	3695
1223	3718
1223	4649
1223	4650
1224	1984
1224	2004
1224	2059
1224	4801
1224	4802
1225	2059
1225	3128
1225	4801
1225	4803
1226	4080
1227	1835
1227	1946
1227	1973
1227	2062
1227	2103
1227	2119
1227	2147
1227	2180
1227	2195
1227	2198
1227	2205
1227	2206
1227	2313
1227	2324
1227	2349
1227	2388
1227	2432
1227	2447
1227	2448
1227	2821
1227	3644
1228	1238
1228	1242
1228	1244
1228	1248
1228	1344
1228	1412
1228	1478
1228	1563
1228	1688
1228	1692
1228	1727
1228	1752
1228	1819
1228	1839
1228	1983
1228	2010
1228	2013
1228	2164
1228	2191
1228	2346
1228	2564
1228	2842
1228	2844
1228	2959
1228	3103
1228	3393
1228	3488
1228	3512
1228	3524
1228	3566
1228	3567
1228	3787
1228	4174
1228	4298
1228	4497
1228	4889
1228	4912
1228	5130
1228	5131
1228	5133
1228	5137
1228	5139
1228	5149
1228	5150
1229	1265
1229	2010
1229	2013
1229	2014
1229	2015
1229	2016
1229	2017
1229	2018
1229	2019
1229	2024
1229	2030
1229	2035
1229	2036
1229	2102
1229	2105
1229	2193
1229	2244
1229	2248
1229	2310
1229	2513
1229	2799
1229	2908
1229	3494
1229	3555
1229	4081
1229	4223
1229	5177
1229	5178
1230	1458
1230	1554
1230	1629
1230	1754
1230	1819
1230	2034
1230	2143
1230	2146
1230	2959
1230	5281
1230	5419
1230	5420
1231	1314
1231	1685
1231	1686
1231	1943
1231	1971
1231	1978
1231	1988
1231	2056
1231	2528
1232	5452
1232	5453
1233	1234
1233	1409
1233	1412
1233	1461
1233	1652
1233	1748
1233	2395
1233	4138
1233	5130
1234	1530
1235	1286
1235	1296
1235	1422
1235	1431
1235	1433
1235	1573
1235	1598
1235	1610
1235	1753
1235	1885
1235	1891
1235	5053
1235	5773
1236	1382
1236	1418
1236	2048
1236	2337
1236	5799
1236	5800
1236	5801
1237	1338
1237	1373
1237	1412
1237	1925
1237	2168
1237	2221
1237	2224
1237	2225
1237	2273
1237	4528
1237	5957
1238	1244
1238	1247
1238	1261
1238	1262
1238	1347
1238	3507
1238	3520
1238	6118
1239	1252
1239	1330
1239	1414
1239	1424
1239	1457
1239	1488
1239	1489
1239	1490
1239	1491
1239	1494
1239	3301
1239	4959
1239	6047
1239	6356
1239	6357
1239	6358
1240	1615
1240	2423
1240	2566
1240	5072
1240	5153
1240	6433
1240	6434
1240	6435
1241	1304
1241	1348
1241	1358
1241	1359
1241	1385
1241	1429
1241	1535
1241	1761
1241	2213
1241	2219
1241	2221
1241	2222
1241	2224
1241	2225
1241	2227
1241	2228
1241	2229
1241	2234
1241	2573
1241	2603
1241	3187
1241	3282
1241	3512
1241	4952
1241	5365
1241	6489
1241	6490
1241	6491
1241	6492
1241	6493
1241	6494
1242	1247
1242	5072
1243	1250
1243	3456
1243	6636
1244	1247
1244	1390
1244	1830
1244	2223
1244	2395
1244	3048
1244	6646
1245	1531
1245	2781
1245	2821
1245	4368
1245	4412
1245	5166
1245	5956
1245	6266
1245	6686
1246	1247
1246	3041
1246	5698
1247	1315
1247	1345
1247	1362
1247	1401
1247	1409
1247	2281
1247	2558
1247	3041
1247	5072
1247	5325
1247	6027
1248	1384
1248	1431
1248	1746
1248	2236
1248	2496
1248	5053
1248	5503
1249	1418
1249	1556
1249	1576
1249	1754
1249	1792
1249	1794
1249	2395
1249	3647
1249	5194
1249	5273
1249	5470
1249	5705
1249	6421
1250	2004
1250	6636
1251	3610
1252	1416
1252	1423
1252	1457
1252	1458
1252	1462
1252	1463
1252	1574
1252	1577
1252	5048
1252	6183
1252	6818
1253	1458
1253	2522
1254	1289
1254	1535
1254	1610
1254	1712
1254	1996
1254	2223
1254	2955
1254	6822
1255	1383
1255	1451
1255	1459
1255	1690
1255	1993
1255	2488
1255	2698
1255	3106
1255	3301
1255	3432
1255	3531
1255	4443
1255	4524
1255	4773
1255	4913
1255	4928
1255	6356
1255	6852
1256	1257
1256	1451
1256	1694
1256	1703
1256	1800
1256	3467
1256	6111
1257	1451
1257	1790
1258	2435
1258	2464
1258	3940
1258	7095
1259	5722
1259	7096
1259	7097
1260	2843
1260	4147
1260	4754
1260	6016
1262	2276
1262	6118
1263	2421
1263	2829
1263	7136
1264	1417
1264	1427
1264	1691
1264	5060
1264	7139
1265	1343
1265	1350
1265	1362
1265	1412
1265	1953
1265	2072
1265	2177
1265	2337
1265	2550
1265	2582
1265	3240
1265	4661
1265	5574
1265	5701
1265	6125
1265	6879
1265	7140
1266	1421
1266	1573
1267	1599
1267	3282
1267	3562
1267	4903
1267	4918
1267	5528
1267	7147
1267	7148
1267	7149
1268	2478
1269	1732
1269	4203
1269	5061
1270	1409
1270	2804
1270	6700
1271	1274
1271	1283
1271	1291
1271	1307
1271	1314
1271	1409
1271	1412
1271	1427
1271	1511
1271	1521
1271	3186
1271	5845
1272	1414
1272	1416
1274	1427
1274	1511
1274	2281
1274	2484
1274	5845
1274	7191
1275	1332
1275	1432
1275	1595
1275	1792
1275	1956
1275	2277
1275	2581
1275	2674
1275	2768
1275	6700
1275	7208
1276	1307
1276	1424
1276	2270
1276	5847
1277	1722
1277	2085
1279	4712
1281	1509
1281	1649
1281	1993
1281	2261
1281	3025
1281	4875
1281	5723
1281	6022
1281	7323
1281	7324
1281	7325
1282	1409
1282	2859
1282	5130
1282	6916
1283	1422
1283	2676
1283	6170
1284	2675
1285	2949
1285	4041
1286	1409
1286	1512
1286	1700
1286	1727
1286	1748
1286	1753
1286	1767
1286	1774
1286	1776
1286	1858
1286	1859
1286	2078
1286	2526
1286	3687
1286	3814
1286	3898
1286	4441
1286	4759
1286	4760
1286	4896
1286	5091
1286	5098
1286	5101
1286	5648
1286	5677
1286	5896
1286	7503
1288	5155
1288	5602
1288	7505
1288	7506
1288	7507
1288	7508
1288	7509
1288	7510
1289	1314
1289	1430
1289	1575
1289	1997
1289	3011
1290	1410
1291	1319
1291	1423
1291	1975
1291	2221
1291	2224
1291	4457
1294	1425
1294	1431
1294	2034
1294	4381
1294	7331
1295	2278
1295	3027
1295	3388
1295	3456
1295	4147
1295	4712
1295	5318
1295	7641
1295	7642
1295	7643
1296	2085
1297	1590
1297	1603
1297	3282
1298	2004
1298	4801
1300	4801
1301	2059
1301	4801
1302	2004
1302	2059
1303	1375
1303	1687
1303	1967
1303	2171
1303	2711
1304	1526
1304	1607
1304	2219
1304	2221
1304	2224
1304	2225
1304	3187
1304	7733
1304	7734
1304	7735
1305	1395
1306	1333
1306	1928
1306	2081
1306	6680
1306	7486
1306	7834
1306	7835
1307	1367
1307	1412
1307	1695
1307	6373
1308	3422
1308	5762
1309	1715
1309	2224
1309	2491
1309	3016
1309	4238
1310	1409
1310	1993
1310	2272
1310	3011
1311	1414
1311	3537
1311	3547
1312	1430
1312	2949
1312	3396
1312	4041
1313	1335
1313	1549
1313	1714
1313	4802
1313	6345
1313	7918
1314	1409
1314	1615
1314	1685
1314	1687
1314	1984
1314	2159
1314	5072
1314	6356
1315	1416
1315	2525
1315	2580
1315	2905
1315	3041
1316	1414
1316	2575
1317	4441
1317	7727
1317	7742
1317	8272
1318	1660
1318	2848
1318	6597
1320	2270
1321	5528
1321	6715
1323	2372
1323	2810
1323	3432
1323	4913
1323	5034
1323	6294
1323	6295
1323	6325
1323	6336
1324	1951
1324	3454
1325	2272
1326	3831
1326	5281
1327	2573
1327	5798
1328	2270
1328	6250
1330	1494
1330	1702
1330	5094
1330	6301
1330	6954
1330	7205
1330	8692
1332	1464
1333	1486
1333	1529
1333	1530
1333	2176
1333	4816
1333	6680
1333	7834
1334	2586
1334	4980
1334	6367
1334	6373
1334	6620
1334	6691
1334	6820
1335	1598
1335	3375
1335	3975
1336	2119
1336	2168
1336	2206
1336	2208
1336	2243
1336	2244
1336	2245
1336	2246
1336	2247
1336	2248
1336	2249
1336	2250
1336	2251
1336	2252
1336	2253
1336	2254
1336	2255
1337	3111
1338	1347
1338	1388
1338	1615
1338	2047
1338	2168
1338	2343
1338	2351
1338	2356
1338	2357
1338	2363
1338	2433
1338	2434
1338	2755
1338	3199
1338	3201
1338	3788
1338	4265
1338	4266
1339	2340
1339	3421
1339	3812
1339	5062
1340	2337
1340	3282
1340	4151
1340	4345
1340	5400
1341	1352
1341	1383
1341	1418
1341	1691
1341	1867
1341	2047
1341	2161
1341	2337
1341	2475
1341	2527
1341	2684
1341	3065
1341	3437
1341	3456
1341	3799
1341	3926
1341	4004
1341	4269
1341	5808
1341	5809
1341	5810
1344	1349
1344	1814
1344	3450
1344	4195
1344	6530
1344	6558
1345	1997
1345	5153
1346	1412
1346	1757
1346	1853
1346	2077
1346	2282
1346	3041
1346	5698
1346	6549
1346	6765
1347	1412
1347	2559
1348	1350
1348	2344
1348	2345
1348	2361
1348	2582
1348	3220
1348	3285
1348	3423
1348	5467
1348	7142
1349	1350
1349	1357
1349	1360
1349	2273
1349	3570
1349	7145
1350	1359
1350	2273
1350	4580
1350	5815
1350	5849
1351	1357
1351	1373
1351	3842
1352	1867
1352	1944
1352	2047
1352	2161
1352	2452
1352	2684
1352	3799
1352	4004
1352	4710
1352	6853
1353	1425
1353	1435
1353	1695
1353	1805
1353	2276
1353	2414
1353	2676
1353	2680
1355	1357
1355	1360
1355	1847
1355	1857
1355	3000
1355	3001
1356	2681
1356	7502
1357	1361
1357	1615
1357	2062
1357	2154
1357	2273
1357	2434
1357	2488
1357	3401
1357	3402
1357	3489
1357	3612
1357	3802
1357	3803
1357	4321
1357	4638
1357	4712
1357	4986
1357	5037
1357	5799
1357	5816
1357	5957
1357	6809
1357	7724
1357	7725
1357	7726
1358	2221
1360	1685
1360	1831
1360	7848
1361	1858
1361	7020
1361	7899
1361	7900
1361	7901
1361	7902
1362	1412
1362	6375
1362	7544
1362	8063
1362	8064
1366	2273
1366	2548
1366	2549
1367	2571
1367	6489
1368	1369
1368	1373
1368	1375
1368	1529
1368	1723
1368	2716
1368	2951
1368	2955
1368	2959
1368	2963
1368	2965
1368	2978
1368	2985
1368	3069
1368	3329
1368	3346
1368	3659
1368	6298
1368	7322
1368	8309
1368	8310
1368	8311
1368	8312
1369	1860
1369	1887
1369	2080
1369	2273
1369	2298
1369	2433
1369	2951
1369	5097
1370	1859
1370	1860
1370	1861
1370	1872
1370	1880
1370	2198
1370	4565
1370	6707
1370	6877
1371	4784
1371	7131
1371	8462
1372	1841
1372	4784
1372	4957
1372	5109
1372	5654
1372	6613
1372	7078
1372	7989
1372	8195
1373	1836
1373	2549
1373	4528
1373	4683
1373	8239
1374	2273
1375	1565
1375	1836
1375	2433
1375	4528
1375	4683
1376	4604
1376	4777
1376	7834
1378	9070
1378	9071
1379	6589
1381	1396
1381	1397
1381	1686
1381	1715
1381	1747
1381	1748
1381	2596
1382	2467
1382	2575
1382	2629
1382	2725
1382	2860
1382	3116
1382	3323
1382	3421
1382	3422
1382	3423
1382	3424
1382	3425
1382	3426
1382	3427
1382	3428
1383	1512
1383	1530
1383	1572
1383	1615
1383	1710
1383	1729
1383	1827
1383	1828
1383	1835
1383	1836
1383	1838
1383	1840
1383	1842
1383	1844
1383	1849
1383	1850
1383	1855
1383	1859
1383	1860
1383	1861
1383	1870
1383	1871
1383	1872
1383	1881
1383	2566
1383	2684
1383	2836
1383	3024
1383	4148
1383	4149
1383	4150
1384	1410
1384	1528
1384	1695
1384	2270
1384	2478
1384	2596
1384	3320
1384	4165
1384	6137
1384	6138
1385	2218
1385	2221
1385	2222
1385	2224
1385	2225
1385	3282
1385	3392
1386	1828
1386	2276
1386	3403
1386	3448
1386	5920
1386	6781
1387	1395
1387	6782
1387	6783
1387	6784
1388	1615
1388	1729
1388	1823
1388	1842
1388	1848
1388	1851
1388	1855
1388	1859
1388	1860
1388	1861
1388	1872
1388	1880
1388	2836
1388	2901
1388	3291
1388	3898
1388	4072
1388	4076
1388	5098
1388	6836
1388	6837
1388	6838
1389	1720
1389	1754
1389	2272
1389	3011
1389	3393
1389	3401
1389	5130
1389	5672
1390	4163
1390	7141
1392	1725
1392	4073
1392	4076
1392	7004
1392	7841
1392	7842
1393	1529
1393	4239
1393	4240
1393	6432
1393	7962
1393	7963
1394	1412
1394	2221
1394	2224
1394	2225
1394	2273
1394	3186
1395	1399
1395	1412
1395	2270
1395	2573
1395	2580
1395	6783
1395	6784
1396	1526
1396	6680
1397	1715
1397	3320
1397	5798
1398	1430
1398	2858
1398	3030
1398	3033
1398	5069
1399	1605
1399	3574
1400	2490
1401	1446
1401	1702
1401	1927
1401	2488
1401	3922
1401	4214
1401	4507
1401	6605
1401	7725
1404	1405
1404	8693
1405	1407
1408	1570
1409	1412
1409	1572
1409	1700
1409	1744
1409	1746
1409	1748
1409	1752
1409	1753
1409	1756
1409	1758
1409	1763
1409	1764
1409	1765
1409	1768
1409	1769
1409	1774
1409	1776
1409	1777
1409	1948
1409	1990
1409	2046
1409	2233
1409	2234
1409	2235
1409	2236
1409	2237
1409	2238
1409	2239
1409	2240
1409	2241
1409	2242
1410	1417
1410	1427
1410	1573
1410	1766
1410	2318
1410	4446
1410	4457
1410	4458
1410	4459
1410	4460
1411	2044
1411	4271
1411	5047
1411	5048
1412	1423
1412	1505
1412	1695
1412	1711
1412	1754
1412	1764
1412	2057
1412	2272
1412	2282
1412	3016
1412	3047
1412	4915
1412	5698
1412	5699
1413	1414
1413	1415
1413	1416
1413	1429
1413	1439
1413	1455
1413	3046
1413	5072
1413	5726
1414	1418
1414	1439
1414	1455
1414	1460
1414	1461
1414	1476
1414	1577
1414	1748
1414	2483
1414	2566
1414	2678
1414	3013
1414	4495
1414	5823
1414	5854
1414	5855
1414	5856
1415	2280
1415	5857
1416	1418
1416	1426
1416	1455
1416	1460
1416	1471
1416	1577
1416	1583
1416	1748
1416	2048
1416	2280
1416	2337
1416	2566
1416	2678
1416	3363
1416	3520
1416	4169
1416	4495
1416	5823
1417	1427
1417	1685
1417	1686
1417	1687
1417	1747
1417	1822
1417	1947
1417	1953
1417	1954
1417	1956
1417	1961
1417	1962
1417	1963
1417	1968
1417	1970
1417	1976
1417	1979
1417	1989
1417	2101
1417	2135
1417	2147
1417	2163
1417	2164
1417	2205
1417	2244
1417	2306
1417	2714
1417	6166
1417	6167
1418	1565
1418	1566
1418	1612
1418	1657
1418	1724
1418	1750
1418	1852
1418	1973
1418	2047
1418	2093
1418	2143
1418	2146
1418	2337
1418	2345
1418	2550
1418	2644
1418	2649
1418	2660
1418	2781
1418	2841
1418	2850
1418	2929
1418	3245
1418	3559
1418	3786
1418	3787
1418	3793
1418	3801
1418	3809
1418	3814
1418	3924
1418	3971
1418	4356
1418	4359
1418	4411
1418	4637
1418	4644
1418	5367
1418	5404
1418	5409
1418	5628
1418	5907
1418	6142
1418	6299
1419	1423
1419	1466
1419	3282
1419	5193
1419	5498
1419	6547
1420	1449
1420	3106
1420	3301
1420	4215
1420	4773
1420	6722
1421	1430
1421	1436
1421	1458
1421	1468
1421	1573
1421	2859
1421	4041
1421	4494
1421	6330
1421	6824
1422	1598
1422	3047
1423	1466
1423	1529
1423	1606
1423	1610
1423	1739
1423	1780
1423	5628
1423	5907
1423	6013
1423	6027
1423	6547
1423	6691
1423	7079
1424	1430
1424	1494
1424	1720
1424	7023
1425	1454
1425	1587
1425	1595
1425	1596
1425	1597
1425	1612
1425	1796
1425	1798
1425	2058
1425	2064
1425	2993
1425	4960
1425	5700
1425	7075
1425	7076
1425	7189
1426	1592
1426	1702
1426	1920
1426	2707
1426	2785
1426	3306
1426	3397
1426	3635
1426	4666
1426	5883
1426	6361
1426	6501
1426	6502
1426	6504
1426	6621
1426	6984
1426	7249
1426	7250
1427	1686
1427	1687
1427	1947
1427	1948
1427	1956
1427	1962
1427	1963
1427	1965
1427	1970
1427	1971
1427	1976
1427	1979
1427	1984
1427	1989
1427	2101
1427	2147
1427	2163
1427	2164
1427	2205
1427	2244
1427	2306
1428	5047
1428	5048
1428	5787
1429	1466
1429	1975
1429	2220
1429	2224
1429	2225
1429	2464
1429	2706
1429	3480
1429	3575
1429	4729
1430	1436
1430	2949
1430	4041
1430	5053
1432	1592
1432	1598
1432	3282
1433	1598
1434	6797
1436	3407
1436	4166
1438	1599
1439	1520
1439	1577
1440	1977
1440	2219
1440	2573
1441	2050
1442	1711
1443	1776
1443	2276
1443	6913
1444	2336
1445	8656
1447	8792
1448	4625
1448	6915
1449	3106
1449	3301
1449	6722
1449	6826
1450	1451
1450	1582
1450	1610
1450	1681
1450	1682
1450	1683
1450	1684
1451	1452
1451	1470
1451	1473
1451	1587
1451	1610
1451	1620
1451	1682
1451	1683
1451	1688
1451	1690
1451	1702
1451	1719
1451	1735
1451	1780
1451	1787
1451	1788
1451	1789
1451	1790
1451	1791
1451	1792
1451	1793
1451	1794
1451	1795
1451	1796
1451	1797
1451	1798
1451	1799
1451	1800
1451	1801
1451	1802
1451	1803
1451	1804
1451	1805
1451	1806
1451	1807
1451	1808
1451	1809
1451	1810
1451	1811
1451	1812
1451	1813
1451	1814
1451	1815
1451	1816
1451	1817
1451	1818
1451	1819
1451	1820
1451	1821
1452	1582
1452	1682
1452	1683
1452	1787
1452	1788
1452	2988
1453	2708
1453	3117
1454	1595
1454	1598
1454	1655
1454	2270
1454	2483
1454	2491
1454	2575
1455	1652
1455	3199
1455	3200
1455	3201
1455	4416
1456	1477
1456	1621
1456	1647
1456	1665
1456	1671
1456	1740
1456	1757
1456	1862
1456	1922
1456	1925
1456	1934
1456	2022
1456	2281
1456	2698
1456	3058
1456	3134
1456	3278
1456	3566
1456	3740
1456	4379
1456	4783
1456	4814
1456	4849
1456	4954
1456	5053
1456	5522
1456	5539
1456	5665
1456	5948
1456	6041
1456	6048
1456	6054
1456	6181
1456	6182
1456	6183
1456	6184
1456	6185
1456	6186
1456	6187
1456	6188
1456	6189
1456	6190
1456	6191
1456	6192
1457	1488
1457	1489
1457	1490
1457	1491
1457	1494
1457	5021
1457	5024
1458	1482
1458	1610
1458	1696
1458	1712
1458	1754
1458	1996
1458	2047
1458	2221
1458	2461
1458	3019
1458	3020
1458	3021
1458	5710
1458	6286
1460	1606
1460	2716
1460	2959
1460	6547
1461	3300
1461	3434
1461	4507
1461	7146
1462	1463
1462	1498
1462	1574
1462	7199
1463	1498
1463	1574
1463	1577
1463	6373
1463	7199
1463	7200
1464	1469
1464	1584
1464	1715
1464	2379
1464	3493
1464	3566
1464	6358
1464	7237
1465	1673
1465	3049
1465	5974
1465	7091
1467	1513
1467	1531
1467	1751
1467	1822
1467	1835
1467	1939
1467	2047
1467	2122
1467	2343
1467	2526
1467	2598
1467	2638
1467	3578
1467	3780
1467	3818
1467	3930
1467	4633
1467	5033
1467	5939
1467	5940
1467	6385
1467	7312
1467	7604
1468	2437
1468	3864
1468	5081
1468	6624
1468	7713
1469	1476
1469	1832
1469	2022
1469	2025
1469	2597
1469	2931
1469	3469
1469	3475
1469	4889
1469	6139
1469	6905
1469	8034
1469	8035
1469	8036
1469	8037
1469	8038
1470	1473
1470	1703
1470	1710
1470	2988
1470	3274
1470	8043
1470	8044
1470	8045
1472	2423
1472	2575
1473	2988
1473	5509
1473	8043
1473	8044
1474	1477
1474	3463
1474	3975
1474	6374
1476	2012
1476	2851
1476	4502
1476	5888
1477	1899
1477	2112
1477	2698
1477	2859
1477	2862
1477	6083
1477	6374
1478	1715
1479	1645
1479	2046
1479	2716
1479	8058
1479	8479
1480	1606
1480	3218
1480	8512
1482	7349
1483	1489
1483	1672
1485	1565
1485	1875
1485	2337
1485	6423
1485	7087
1485	7509
1485	8634
1485	8635
1486	4804
1486	5016
1486	5465
1486	6261
1486	7275
1488	1489
1488	1490
1488	1491
1488	7180
1488	8672
1489	1490
1489	1491
1489	4882
1490	1491
1492	2963
1492	6373
1493	1506
1493	4362
1493	8788
1494	6301
1494	6954
1494	8692
1495	1919
1498	7551
1498	7880
1501	3038
1502	5530
1503	1583
1504	4157
1505	1522
1505	1525
1505	1526
1505	1553
1505	1555
1505	1556
1505	1557
1505	1560
1505	1561
1506	1508
1506	1921
1506	2584
1506	7375
1507	1929
1507	2277
1507	2664
1507	3922
1507	4505
1507	6441
1507	6714
1507	7654
1507	7655
1507	7656
1508	2227
1508	2591
1508	3685
1508	5677
1508	8320
1509	1513
1509	2207
1509	2526
1509	2637
1509	2660
1509	3145
1509	3355
1509	3489
1509	3574
1509	4145
1509	5175
1509	5176
1510	1917
1510	1958
1510	2041
1510	5609
1511	2433
1511	2475
1511	2520
1511	4708
1511	4761
1512	1646
1512	1684
1512	1685
1512	1686
1512	1693
1512	1753
1512	1834
1512	1855
1512	1984
1512	2067
1512	2078
1512	2179
1512	2370
1512	2375
1512	2527
1512	4086
1512	4376
1512	4529
1512	5091
1512	5093
1512	5291
1512	5425
1512	5949
1512	5950
1512	5951
1513	1673
1513	1747
1513	1751
1513	1851
1513	1984
1513	2078
1513	2421
1513	2526
1513	2527
1513	2872
1513	3322
1513	3355
1513	3574
1513	4154
1513	6486
1513	6487
1513	6488
1514	6707
1515	1615
1515	1647
1515	1747
1515	1773
1515	1959
1515	2298
1515	2433
1515	2434
1515	2517
1515	2526
1515	2645
1515	2670
1515	2671
1515	4471
1515	4711
1515	5669
1515	5670
1515	5678
1515	5679
1515	5680
1515	7002
1515	7003
1515	7004
1517	1979
1519	1731
1519	1951
1519	2524
1519	4955
1519	6894
1520	2959
1520	8550
1521	1578
1521	4154
1522	2488
1522	3013
1522	7370
1523	3380
1523	8779
1524	2504
1525	2575
1525	2965
1525	3474
1525	8911
1526	1571
1526	2484
1526	2570
1526	2587
1526	3340
1526	5486
1526	6644
1526	6715
1526	7255
1526	7630
1526	7761
1526	8935
1526	8936
1527	2077
1527	4147
1527	4782
1527	5319
1527	6686
1527	9223
1528	2236
1528	2354
1528	2678
1528	3320
1528	5271
1528	5708
1529	2679
1529	3242
1529	3990
1529	5444
1529	6642
1529	7226
1530	1700
1530	1973
1530	2120
1530	2168
1530	2247
1530	2289
1530	2365
1530	2804
1530	3474
1530	3687
1530	3840
1530	4176
1530	4583
1530	5032
1530	5284
1530	5444
1530	5446
1530	5447
1530	5448
1530	6642
1530	7387
1530	7838
1530	7839
1530	7840
1531	2102
1531	2180
1531	2439
1531	2546
1531	2697
1531	2843
1531	2845
1531	2952
1531	3895
1531	3906
1531	4234
1531	5027
1531	6811
1531	8328
1532	3620
1532	8599
1535	1724
1535	1735
1535	1799
1535	1843
1535	1996
1535	2223
1535	3202
1535	3303
1535	4215
1535	4362
1535	5838
1535	5840
1535	5892
1535	5893
1536	3261
1536	7156
1537	2959
1537	3505
1537	4349
1537	5089
1539	2883
1540	2888
1540	7021
1542	5203
1544	1993
1544	2350
1544	2390
1544	2677
1544	2867
1544	3433
1544	4266
1544	5424
1544	5498
1544	5499
1544	5500
1544	5501
1545	1845
1545	1889
1545	2870
1545	3317
1545	3387
1545	3446
1545	3450
1545	4529
1545	5616
1545	6145
1545	6931
1546	2047
1546	2276
1546	2464
1546	3566
1546	7922
1546	7923
1547	1570
1547	2433
1547	3687
1547	5098
1547	5685
1547	6091
1547	7062
1547	8055
1548	8146
1549	1920
1549	3062
1549	3375
1549	6057
1549	7135
1550	2605
1551	2756
1552	1944
1553	1719
1553	1724
1553	1735
1553	1737
1553	1995
1555	1610
1555	1785
1555	1996
1555	7179
1556	3432
1556	7200
1556	7689
1557	4672
1558	5118
1558	6661
1558	6953
1558	8496
1560	1561
1560	2920
1561	5665
1562	1643
1563	1827
1563	2338
1564	2456
1564	3534
1564	4392
1564	4737
1564	4824
1564	4825
1565	1657
1565	1973
1565	2046
1565	2047
1565	2048
1565	2067
1565	2076
1565	2433
1565	2554
1565	2781
1565	3355
1565	4408
1565	4668
1565	4708
1565	5153
1565	5154
1565	5155
1565	5156
1565	5157
1566	1892
1566	1896
1566	1902
1566	1907
1566	1908
1566	1918
1566	2784
1566	2866
1566	2887
1566	2918
1566	3101
1566	3139
1566	3168
1566	3379
1566	3571
1566	3746
1566	3897
1566	4223
1566	4251
1566	4299
1566	4487
1566	4602
1566	5623
1566	5745
1566	5746
1566	5747
1566	5748
1566	5749
1567	1615
1567	1616
1567	1719
1568	2142
1568	5213
1568	5222
1569	2088
1569	3218
1569	6884
1569	7081
1570	1725
1570	2079
1570	2319
1570	3130
1570	3188
1570	3310
1570	3548
1570	3912
1570	4012
1570	4386
1570	4432
1570	5281
1570	5673
1570	5854
1570	7012
1570	7037
1570	7459
1570	7460
1570	7461
1570	7462
1570	7463
1570	7464
1570	7465
1570	7466
1570	7467
1570	7468
1571	1607
1571	2875
1571	5628
1571	6533
1571	7761
1572	1753
1572	1834
1572	1838
1572	1855
1572	1867
1572	2047
1572	2078
1572	2526
1572	3024
1572	4158
1572	4160
1573	1622
1573	1802
1573	2053
1573	2086
1573	2277
1573	2674
1573	4859
1573	5737
1573	6628
1573	6629
1574	1577
1574	1578
1574	1804
1574	1997
1574	2698
1574	5529
1574	6152
1574	6160
1574	6183
1574	6825
1574	7201
1574	7202
1575	1766
1575	1772
1575	2272
1575	3011
1575	3407
1575	5130
1575	5705
1575	7195
1576	1579
1576	1754
1576	1772
1576	3048
1576	3394
1576	3398
1576	3822
1576	5711
1576	5712
1576	6819
1576	6821
1577	1578
1577	1637
1577	1804
1577	2698
1577	3048
1577	3807
1577	5048
1577	5206
1577	5647
1577	6160
1577	6828
1577	7202
1577	7640
1577	8014
1577	8015
1577	8016
1578	1997
1578	2698
1578	3048
1578	3176
1578	3807
1578	5647
1578	7202
1578	7640
1578	8015
1579	1598
1579	1754
1579	1772
1579	3048
1579	3394
1579	3398
1579	5711
1579	5712
1579	5718
1579	6819
1579	6821
1582	1883
1582	1884
1583	1587
1583	1608
1583	1654
1583	1757
1583	1789
1583	1922
1583	2006
1583	2257
1583	2423
1583	2664
1583	2764
1583	2785
1583	2851
1583	3134
1583	3586
1583	4412
1583	4661
1583	4961
1583	5139
1583	5252
1583	5310
1583	5881
1583	6005
1583	6041
1583	6042
1583	6043
1583	6044
1583	6045
1583	6048
1583	6050
1583	6053
1583	6054
1583	6528
1583	6553
1583	6554
1583	6555
1583	6556
1583	6557
1583	6558
1583	6559
1583	6560
1583	6561
1583	6562
1583	6563
1583	6564
1583	6565
1583	6566
1584	2379
1585	2160
1585	6726
1586	3961
1586	5089
1587	1690
1587	1719
1587	1796
1587	1899
1587	2416
1587	2417
1587	2423
1587	2488
1587	3374
1587	4061
1587	4503
1587	6333
1587	6797
1587	6798
1588	2725
1588	3019
1588	4955
1588	6808
1588	6812
1588	6813
1589	2525
1590	1730
1590	7097
1591	1636
1591	1970
1591	2047
1591	2888
1591	2958
1591	4645
1591	4875
1592	1595
1592	1598
1592	1672
1592	2676
1592	2680
1592	6250
1593	5902
1594	2270
1594	2414
1595	3507
1598	1599
1598	1612
1598	5701
1600	2989
1600	4804
1600	5846
1601	2677
1603	1741
1603	1779
1603	1926
1603	1970
1603	2031
1603	2307
1603	2534
1603	2609
1603	2660
1603	2860
1603	2880
1603	2906
1603	3395
1603	3424
1603	3427
1603	3899
1603	3957
1603	3961
1603	3962
1603	3963
1603	3968
1603	3974
1603	3983
1603	3993
1603	4012
1603	4013
1603	4018
1603	4112
1603	4216
1603	4603
1603	4650
1603	4709
1603	4728
1603	4739
1603	5078
1603	5193
1603	5230
1603	5363
1603	5365
1603	5367
1603	5368
1603	5369
1603	5370
1603	5373
1603	5375
1603	5386
1603	5662
1603	6105
1603	6177
1603	6178
1603	6213
1603	6219
1603	6221
1603	6224
1603	6225
1603	6528
1603	6529
1603	6530
1603	6531
1603	6532
1603	6533
1603	6534
1603	6535
1603	6536
1604	1719
1604	2695
1604	2767
1604	3062
1604	3103
1604	3306
1604	3635
1604	4808
1604	5135
1604	5193
1604	5512
1604	6501
1604	6617
1604	6630
1606	1791
1606	1824
1606	1920
1606	1951
1606	1955
1606	1977
1606	2675
1606	2962
1606	3474
1606	3965
1606	4379
1606	4812
1606	4953
1606	5144
1606	5728
1606	6181
1606	6505
1606	6507
1606	6691
1606	6866
1606	6867
1606	6868
1606	6869
1607	2270
1607	2484
1607	2570
1607	6644
1607	7255
1607	7630
1608	1623
1608	1749
1608	2416
1608	2421
1608	2789
1608	2829
1608	3374
1608	4229
1608	5227
1608	6935
1608	8129
1609	2372
1609	2488
1609	2522
1609	3432
1609	6294
1609	6295
1609	6296
1609	6331
1610	1719
1610	1724
1610	1733
1610	1754
1610	1755
1610	1779
1610	1780
1610	1781
1610	1782
1610	1783
1610	1784
1610	1785
1610	1786
1611	3396
1611	5249
1611	6384
1611	6385
1612	2065
1612	2337
1612	6074
1613	8794
1615	1685
1615	1747
1615	1753
1615	1827
1615	2047
1615	2072
1615	2143
1615	2159
1615	2248
1615	2250
1615	2308
1615	2337
1615	2354
1615	2356
1615	2378
1615	2391
1615	2395
1615	2398
1615	2405
1615	2433
1615	2526
1615	2617
1615	2618
1615	2631
1615	2799
1615	3261
1615	3262
1615	3319
1615	3556
1615	4112
1615	4113
1615	4114
1615	4115
1616	1828
1616	3348
1616	3474
1616	6545
1617	2022
1617	3012
1617	3323
1617	3735
1617	3812
1617	4028
1617	5086
1617	5482
1617	5931
1617	6042
1617	6686
1617	7331
1617	7411
1617	7732
1617	8607
1617	8918
1617	8919
1619	1723
1619	1885
1619	1887
1619	1891
1619	1897
1619	1899
1619	1907
1619	2226
1619	2310
1619	2704
1619	2767
1619	2957
1619	3232
1619	3276
1619	3642
1619	3829
1619	4293
1619	4392
1619	5362
1619	5432
1619	5750
1619	5751
1619	5752
1619	5753
1619	5754
1619	5755
1619	5756
1619	5757
1619	5758
1619	5759
1619	5760
1620	1792
1620	2988
1620	7258
1620	7999
1621	1745
1621	1878
1621	3103
1621	3145
1621	8057
1622	1975
1622	2875
1622	7487
1623	2503
1623	5989
1623	7365
1623	8824
1623	8825
1623	8826
1623	8827
1624	1709
1624	1777
1624	1996
1624	3567
1624	6376
1625	3835
1625	3922
1625	6094
1625	6883
1625	7209
1626	2532
1626	6883
1626	7892
1627	8066
1629	2371
1629	3027
1629	3437
1629	3469
1629	4916
1629	8066
1630	8066
1630	8207
1631	3334
1633	2642
1633	4402
1634	2113
1634	2532
1634	2683
1634	2686
1634	4365
1634	5000
1634	5001
1635	1684
1635	2101
1635	2342
1635	3493
1635	4063
1635	4653
1635	5038
1635	5039
1635	5205
1635	5279
1635	5298
1636	2777
1636	3489
1636	4602
1636	4653
1636	5305
1637	2079
1637	2383
1637	3503
1637	3678
1637	3740
1637	3835
1637	5021
1637	5859
1638	6388
1638	6391
1639	2819
1639	3267
1639	3274
1639	3330
1639	4888
1639	6393
1639	6394
1640	1749
1640	2012
1640	2421
1640	2423
1640	2804
1640	2952
1640	3687
1640	5445
1640	6882
1641	1858
1641	2385
1641	4161
1641	4703
1641	7001
1641	7109
1642	1842
1642	1899
1642	2012
1642	2416
1642	2763
1642	2842
1642	2893
1642	3498
1642	3972
1642	4208
1642	4832
1642	5803
1642	5804
1642	6944
1642	7040
1642	7117
1642	7118
1642	7119
1642	7120
1643	2012
1643	2417
1643	3376
1643	5629
1644	1921
1644	1924
1644	2075
1644	2421
1644	2785
1644	2906
1644	3110
1644	4507
1644	5481
1644	6056
1644	6057
1644	6060
1644	6502
1644	6913
1645	2523
1646	2112
1646	3976
1646	5672
1646	6242
1646	7540
1646	7541
1647	1959
1647	2517
1647	2645
1647	2669
1647	2813
1647	3474
1647	4808
1647	5109
1647	6380
1647	6827
1648	1949
1648	1955
1648	4585
1649	2012
1649	3030
1649	3423
1649	5479
1649	6041
1649	6139
1649	7324
1650	1807
1650	3639
1650	4077
1650	4998
1651	1951
1651	3108
1651	3488
1651	5307
1651	6053
1651	6085
1651	6987
1651	7255
1652	1697
1652	1777
1652	2005
1652	3620
1652	4802
1652	7885
1653	3469
1654	2860
1654	3970
1654	8456
1655	2417
1655	2480
1655	2906
1655	3476
1655	3974
1655	3980
1655	7283
1656	3780
1656	5916
1657	1727
1657	1753
1657	2078
1657	2245
1657	2337
1657	2433
1657	2600
1657	3377
1657	3826
1657	4113
1657	4180
1657	4964
1657	5689
1658	2716
1658	2959
1659	7686
1659	7722
1660	3224
1660	3656
1660	4063
1660	5381
1660	6009
1660	6676
1660	6875
1660	8924
1660	8925
1661	6834
1661	8110
1662	2959
1663	2860
1663	2868
1663	3442
1663	3962
1663	4732
1663	5073
1664	1687
1665	4645
1667	3385
1670	6001
1671	2112
1671	4147
1673	3437
1673	3454
1673	4019
1673	5089
1673	7026
1673	8383
1674	1675
1674	2382
1674	2860
1674	3438
1674	3439
1674	3913
1674	4085
1674	4729
1674	5081
1674	5230
1674	5403
1674	8425
1675	6523
1675	8441
1676	6139
1677	3323
1678	2505
1678	4551
1678	6571
1679	5771
1680	1736
1680	7713
1680	7714
1682	1814
1683	1725
1683	1787
1684	2949
1684	3116
1684	3132
1684	3754
1684	3896
1684	4286
1684	4313
1684	4474
1684	4497
1684	4558
1684	4925
1684	5002
1684	5146
1684	5559
1684	6059
1684	6187
1684	6953
1684	7338
1684	7339
1684	7340
1684	7341
1684	7342
1684	7343
1684	7344
1685	1747
1685	1947
1685	1950
1685	1952
1685	1953
1685	1954
1685	1955
1685	1956
1685	1960
1685	1962
1685	1965
1685	1968
1685	1969
1685	1970
1685	1971
1685	1973
1685	1974
1685	1976
1685	1978
1685	1979
1685	1981
1685	1983
1685	1984
1685	1988
1685	2047
1685	2104
1685	2110
1685	2115
1685	2132
1685	2133
1685	2134
1685	2135
1685	2143
1685	2144
1685	2145
1685	2146
1685	2147
1685	2148
1685	2149
1685	2150
1685	2151
1685	2152
1685	2153
1685	2154
1685	2155
1685	2156
1685	2157
1685	2158
1685	2159
1685	2160
1686	1697
1686	1750
1686	1762
1686	1832
1686	1952
1686	1954
1686	1956
1686	1957
1686	1960
1686	1963
1686	1965
1686	1966
1686	1968
1686	1969
1686	1970
1686	1971
1686	1973
1686	1974
1686	1977
1686	1982
1686	1983
1686	1984
1686	2011
1686	2045
1686	2047
1686	2101
1686	2115
1686	2133
1686	2134
1686	2143
1686	2144
1686	2145
1686	2146
1686	2147
1686	2149
1686	2150
1686	2151
1686	2152
1686	2154
1686	2156
1686	2157
1686	2158
1686	2159
1686	2161
1686	2162
1686	2163
1686	2164
1686	2165
1686	2166
1686	2167
1686	2168
1686	2169
1686	2170
1686	2171
1686	2172
1686	2173
1686	2174
1686	2175
1687	2689
1687	2690
1687	2691
1687	2692
1687	2693
1687	2694
1687	2695
1687	2696
1688	1791
1688	4152
1688	4677
1688	4712
1688	5505
1688	5506
1689	5410
1689	6110
1689	6111
1689	6112
1689	6113
1689	6114
1689	6115
1689	6116
1689	6117
1690	1719
1690	1724
1690	1783
1690	1796
1690	2275
1690	2781
1690	3245
1690	3565
1690	4084
1690	4525
1690	4969
1690	5893
1690	6119
1691	2348
1691	3266
1691	3437
1691	3620
1691	3806
1691	3924
1691	4101
1691	4529
1691	6009
1691	6143
1691	6144
1691	6145
1692	2034
1692	4580
1692	5815
1693	2475
1693	2523
1693	3688
1693	6146
1693	6147
1694	2768
1694	3027
1694	3924
1694	4150
1695	2596
1696	1714
1696	3568
1696	6142
1697	1850
1697	2088
1697	2093
1697	3685
1697	3976
1697	4270
1697	4272
1697	4966
1697	5402
1697	6116
1697	6143
1697	6162
1697	6163
1697	6164
1697	6165
1698	1699
1698	2574
1698	3406
1698	6168
1699	1703
1699	1716
1699	1792
1699	1996
1699	2574
1699	2588
1699	3467
1700	2912
1700	5977
1700	6359
1702	1926
1702	2625
1702	2707
1702	3306
1702	3397
1702	3590
1702	3803
1702	6360
1702	6361
1702	6362
1702	6363
1703	2172
1703	2402
1703	2781
1703	3078
1703	3182
1703	6366
1703	6367
1703	6368
1703	6369
1704	2941
1704	4362
1705	3687
1705	4502
1706	6375
1707	2089
1707	3392
1707	3409
1707	3416
1707	3420
1708	4182
1709	1753
1709	2523
1709	6146
1709	6150
1709	6376
1709	6377
1709	6378
1712	1719
1712	1724
1712	2781
1712	2984
1712	3352
1712	4970
1712	6793
1712	6794
1712	6795
1712	6796
1713	2692
1714	1775
1714	3218
1714	3435
1714	7365
1715	2585
1715	3022
1715	3023
1715	3060
1715	4155
1715	6649
1716	2574
1716	2588
1717	1777
1717	2529
1717	4836
1718	6915
1719	1728
1719	1738
1719	1739
1719	1780
1719	1795
1719	1796
1719	1797
1719	1798
1719	1993
1719	1994
1719	1995
1719	1996
1719	1997
1719	1998
1719	1999
1719	2000
1719	2001
1719	2002
1719	2003
1719	2004
1719	2005
1719	2006
1719	2007
1719	2008
1719	2009
1720	1792
1720	2272
1720	5224
1721	1995
1721	2781
1721	6698
1722	6699
1723	1885
1723	1887
1723	1891
1723	1897
1723	1899
1723	1907
1723	1930
1723	2063
1723	2120
1723	2488
1723	2547
1723	2620
1723	2704
1723	2921
1723	2922
1723	2926
1723	2928
1723	2929
1723	2930
1723	2932
1723	2933
1723	2938
1723	2940
1723	2951
1723	2956
1723	2957
1723	2966
1723	3061
1723	3066
1723	3068
1723	3087
1723	3089
1723	3099
1723	3659
1723	3842
1723	5763
1723	5764
1724	1739
1724	1972
1724	1995
1724	2241
1724	2337
1724	2345
1724	2522
1724	2626
1724	3019
1724	5524
1724	5529
1724	5838
1724	5839
1724	5840
1725	1996
1725	2759
1725	3966
1725	4177
1725	4393
1725	4605
1725	5581
1725	5934
1725	5935
1725	5936
1725	5937
1726	1840
1726	2002
1726	2006
1726	2135
1726	2862
1726	2901
1726	2956
1726	3075
1726	6427
1726	6428
1727	1753
1727	1767
1727	1780
1727	1995
1727	2080
1727	2082
1727	2092
1727	2093
1727	2095
1727	2096
1728	1731
1728	1732
1728	2420
1728	2524
1728	2639
1728	3019
1728	4970
1728	5892
1728	6535
1728	6789
1728	6790
1728	6799
1729	1835
1729	1860
1729	3062
1729	6828
1729	6829
1729	6877
1730	1780
1730	6879
1730	6880
1730	6881
1731	1732
1731	1755
1731	1780
1731	1781
1731	1795
1731	1925
1731	1951
1731	1998
1731	2418
1731	2419
1731	2420
1731	2480
1731	2524
1731	2698
1731	3019
1731	3394
1731	3423
1731	4625
1731	5892
1731	6789
1731	6790
1731	6793
1731	6799
1731	6891
1731	6892
1732	1738
1732	1780
1732	1781
1732	1795
1732	1999
1732	2004
1732	2420
1732	3278
1732	5676
1732	6128
1732	6261
1732	6313
1732	6895
1732	6896
1732	6897
1732	6898
1732	6899
1732	6900
1732	6901
1732	6902
1732	6903
1734	2012
1734	3385
1734	3396
1734	6083
1735	3276
1735	5701
1736	6994
1737	1738
1737	1781
1737	1795
1737	2419
1737	2420
1737	3019
1737	5892
1737	6789
1737	6790
1738	2419
1738	2524
1738	3019
1738	6790
1739	1755
1739	1779
1739	1780
1739	1782
1740	2538
1740	2708
1740	2772
1740	2841
1740	3077
1740	3103
1740	3385
1740	3625
1740	3774
1740	4194
1740	4271
1740	4287
1740	4312
1740	4463
1740	4540
1740	4845
1740	4934
1740	5007
1740	5043
1740	5746
1740	5990
1740	6011
1740	6359
1740	6753
1740	7204
1740	7669
1740	7670
1740	7671
1740	7672
1740	7673
1740	7674
1741	1832
1741	3283
1741	3471
1741	8125
1742	1780
1742	3388
1743	2127
1743	4888
1743	9194
1743	9241
1744	2558
1744	2559
1744	2560
1744	2561
1745	3158
1745	3626
1745	4406
1746	2558
1747	1822
1747	1832
1747	1858
1747	1946
1747	1953
1747	2065
1747	2101
1747	2115
1747	2150
1747	2156
1747	2215
1747	2280
1747	2294
1747	2342
1747	2376
1747	2509
1747	2517
1747	2518
1747	2555
1747	2658
1747	2670
1747	3206
1747	4153
1747	4492
1747	5290
1747	5291
1747	5292
1747	5293
1747	5294
1747	5295
1747	5296
1747	5297
1748	1753
1748	1756
1748	1758
1748	1763
1748	1764
1748	1765
1748	1774
1748	1776
1748	1777
1748	2270
1748	3015
1748	5309
1748	5695
1748	5696
1748	5697
1749	2123
1749	2804
1749	3542
1749	3647
1749	3906
1750	2048
1750	2163
1750	2245
1750	2337
1750	4282
1750	5963
1751	2526
1751	2859
1751	6606
1753	1767
1753	1776
1753	1858
1753	1963
1753	2080
1753	2081
1753	2143
1753	2337
1753	2356
1753	2623
1753	3814
1753	4107
1753	4413
1753	4759
1753	4760
1753	5091
1753	5896
1753	6728
1754	1772
1754	1794
1754	2698
1754	3048
1754	3398
1754	3507
1754	3822
1754	5130
1754	5711
1754	5712
1754	6367
1754	6819
1754	6820
1754	6821
1755	6911
1756	1763
1756	1765
1756	1774
1756	1776
1756	1996
1756	2236
1757	1899
1757	2079
1757	2416
1758	1951
1758	3025
1758	6544
1758	6799
1759	2385
1759	2667
1759	3364
1759	3741
1759	3743
1759	4311
1759	4342
1759	4376
1759	4996
1759	5346
1759	7260
1760	1792
1760	2522
1760	2875
1760	4195
1760	7650
1760	7651
1760	7652
1761	7360
1762	1993
1762	2093
1762	2402
1762	3244
1763	2338
1763	2668
1763	3072
1763	3303
1763	4215
1764	2047
1764	3966
1764	6748
1766	2289
1766	2423
1766	3681
1766	3965
1766	4147
1766	4169
1766	4557
1766	5728
1766	6867
1766	6868
1766	6869
1766	8065
1767	2637
1767	2717
1767	2718
1767	2719
1767	4760
1767	8085
1767	8086
1771	4518
1772	2120
1772	2678
1772	3048
1772	3398
1772	5711
1772	5712
1772	6819
1772	6821
1774	2057
1774	2306
1774	3814
1775	2050
1775	2626
1775	3218
1775	3224
1775	3434
1776	2341
1776	2933
1776	3303
1776	3400
1776	3420
1776	3849
1776	4215
1776	5419
1776	5420
1776	5422
1776	5423
1776	5424
1776	6284
1776	6972
1776	8539
1776	8540
1776	8541
1777	5016
1777	5539
1777	8883
1777	8884
1779	3282
1779	5951
1780	5896
1781	2419
1781	2524
1781	3019
1781	6789
1781	6790
1783	1996
1784	2660
1784	7622
1784	7623
1785	3049
1785	3074
1785	3303
1785	4215
1785	6932
1785	7162
1785	7167
1785	7171
1785	7179
1786	2664
1786	6891
1787	2112
1787	2416
1787	2423
1789	2626
1789	4532
1789	5509
1790	4381
1790	5517
1791	2480
1791	4867
1791	5509
1792	1817
1792	1832
1792	1988
1792	2419
1792	2520
1792	2581
1792	3299
1792	3406
1792	3443
1792	5490
1793	2574
1793	2664
1793	6766
1794	3261
1794	4458
1794	5133
1795	1799
1795	2419
1795	2524
1795	3019
1795	3590
1795	5892
1795	6148
1795	6689
1795	6789
1795	6790
1795	6791
1796	4503
1797	1810
1797	1811
1797	1815
1797	1817
1797	6060
1797	6801
1797	6802
1798	2698
1798	2699
1798	3106
1798	3704
1798	4503
1798	4928
1798	4929
1799	1999
1799	2004
1799	2419
1799	5892
1799	6793
1800	6111
1801	4955
1801	7195
1801	7197
1802	3468
1802	3469
1803	1808
1804	2906
1804	4959
1804	6367
1804	6820
1804	6870
1806	1951
1807	1839
1807	2395
1807	2550
1807	2552
1807	2814
1807	3105
1807	3551
1807	4077
1807	5967
1807	7267
1807	8071
1808	8072
1808	8073
1809	3900
1810	1817
1811	2480
1811	2860
1811	4709
1811	8074
1811	8075
1812	1814
1815	2859
1815	6088
1816	5016
1816	6373
1816	8321
1817	2012
1817	2034
1817	6801
1817	7601
1818	1951
1819	5758
1820	1821
1820	6801
1822	2073
1822	2156
1822	2469
1822	2475
1822	2476
1822	2477
1823	1824
1823	1835
1823	3102
1823	3103
1823	3104
1823	3105
1823	3106
1823	3107
1824	2112
1824	2421
1824	3102
1824	3110
1825	1826
1825	2221
1825	2224
1825	2380
1825	2597
1825	2762
1826	2143
1826	2223
1826	2421
1826	2781
1826	2815
1826	2889
1826	2899
1826	3248
1826	3276
1826	3606
1826	3607
1826	3608
1827	1828
1827	1829
1827	1830
1827	1831
1827	1936
1827	1937
1827	2067
1827	2268
1827	2415
1827	2763
1827	2875
1827	2949
1827	3124
1827	3125
1827	4030
1827	4031
1827	4032
1827	4033
1827	4034
1827	4035
1827	4036
1827	4037
1827	4038
1827	4039
1827	4040
1827	4041
1828	2076
1828	2172
1828	2337
1828	2395
1828	2625
1828	2762
1828	3129
1828	3514
1828	4101
1828	4102
1828	4103
1828	4104
1828	4105
1829	1937
1829	2065
1829	2143
1829	2161
1829	2201
1829	2213
1829	2336
1829	2338
1829	2340
1829	2379
1829	2392
1829	2529
1829	2822
1829	2839
1829	3785
1829	3929
1829	4042
1829	4128
1829	4129
1830	1838
1830	4173
1831	1851
1831	1855
1831	1863
1831	2667
1831	2836
1831	4071
1831	4072
1832	1846
1832	1858
1832	1946
1832	1953
1832	1955
1832	1971
1832	1988
1832	1992
1832	2047
1832	2107
1832	2132
1832	2133
1832	2147
1832	2156
1832	2163
1832	2167
1832	2193
1832	2194
1832	2198
1832	2244
1832	2247
1832	2342
1832	2509
1832	2513
1832	2626
1832	2640
1832	3642
1832	3806
1832	4715
1832	4716
1832	4717
1833	1837
1833	1953
1833	2185
1833	2432
1833	2823
1833	3230
1833	4754
1833	4755
1834	1855
1834	1859
1834	1861
1834	2078
1834	2473
1834	2475
1834	2520
1834	2527
1834	2650
1834	2718
1834	3814
1834	3971
1834	4531
1834	4758
1834	4759
1834	4760
1834	4761
1834	4764
1834	4765
1834	4766
1834	4767
1834	4768
1834	4908
1834	5069
1834	5070
1835	1946
1835	1952
1835	1953
1835	1970
1835	1973
1835	1983
1835	1992
1835	2073
1835	2101
1835	2119
1835	2134
1835	2147
1835	2176
1835	2177
1835	2188
1835	2198
1835	2208
1835	2249
1835	2266
1835	2303
1835	2315
1835	2439
1835	2451
1835	2458
1835	2474
1835	2625
1835	2637
1835	3062
1835	3618
1835	4151
1835	4542
1835	4633
1835	4784
1835	5183
1835	5184
1836	2742
1836	3024
1836	3374
1836	3609
1836	3924
1836	4139
1836	4172
1836	4779
1836	4781
1836	4956
1836	5518
1836	5519
1836	5520
1836	5521
1837	1953
1837	1989
1837	2107
1837	2194
1837	2215
1837	2244
1837	2509
1837	2515
1837	2623
1837	2637
1837	2660
1838	1937
1838	2875
1838	2949
1838	3125
1838	4030
1838	4033
1838	4034
1838	4035
1838	4036
1838	4038
1838	4039
1838	4041
1838	6206
1839	1842
1839	1855
1839	2337
1839	3024
1839	3105
1839	3639
1839	4077
1839	5843
1840	1919
1840	5871
1840	5872
1840	5874
1841	2002
1841	3453
1841	3729
1841	3834
1841	3919
1841	4882
1841	5127
1841	6118
1841	6179
1841	6640
1841	6641
1842	1849
1842	1850
1842	3482
1842	3902
1842	4317
1842	4331
1842	4873
1842	6844
1843	1990
1843	2244
1843	2337
1843	2959
1843	3435
1843	5075
1843	5800
1843	5801
1844	1938
1844	3453
1844	3917
1845	2076
1845	2782
1845	3313
1845	3317
1845	3446
1845	5616
1845	5893
1846	3070
1847	1856
1847	2120
1847	2429
1847	2439
1847	2637
1847	2646
1847	2886
1847	3000
1847	3380
1847	3480
1847	6888
1847	6953
1848	2637
1848	2888
1848	3238
1848	3676
1848	4715
1848	5021
1848	5143
1849	1929
1849	6391
1849	6770
1851	3291
1851	4076
1851	4093
1851	4143
1851	6488
1851	6861
1852	2337
1852	2480
1852	3413
1852	5089
1852	6269
1853	2809
1855	1867
1855	2526
1855	2836
1855	3024
1855	4071
1855	4097
1855	4155
1855	4158
1855	6873
1856	7270
1857	3307
1857	5132
1857	6745
1857	7270
1857	7372
1858	2098
1858	2136
1858	2143
1858	2391
1858	2409
1858	4112
1858	5648
1859	2338
1859	2520
1859	2527
1859	4762
1859	6877
1859	6895
1859	7168
1859	7477
1859	7478
1860	1902
1860	2079
1860	2298
1860	2433
1860	5224
1860	5498
1860	5674
1860	6282
1860	6443
1860	6877
1860	6895
1860	7485
1861	2520
1861	6877
1861	6895
1862	3920
1862	4115
1862	4645
1862	4840
1863	2673
1863	5664
1863	7836
1863	7837
1864	2072
1864	2637
1864	3574
1865	2081
1865	2095
1865	2295
1865	3790
1865	4649
1865	4875
1865	5799
1865	6542
1865	6593
1865	7928
1867	2025
1867	2526
1867	4158
1868	2345
1868	2411
1868	2923
1868	3311
1868	3686
1868	3913
1868	3914
1868	4534
1868	4784
1868	7998
1870	2276
1870	4165
1871	2407
1871	3024
1871	6264
1871	6797
1871	8636
1872	6877
1873	8707
1875	2140
1875	2425
1875	2888
1875	4257
1875	4625
1875	5224
1875	6595
1875	7270
1876	5319
1876	5933
1876	6089
1876	6589
1876	8169
1877	2047
1877	4800
1877	8708
1879	8709
1880	6877
1881	5411
1881	7865
1883	2766
1883	3465
1883	4223
1883	4305
1883	4750
1883	5169
1883	7020
1884	5893
1884	6774
1884	6775
1885	1886
1885	1887
1885	1888
1885	1889
1885	1890
1886	1891
1886	1892
1886	1893
1886	1894
1886	1895
1886	1896
1886	1897
1886	1898
1886	1899
1886	1900
1886	1901
1886	1902
1886	1903
1887	1891
1887	1897
1887	1899
1887	1907
1887	2704
1887	2957
1887	5761
1887	5762
1888	1891
1888	1893
1888	1897
1888	1907
1888	2704
1888	5761
1889	1891
1889	1907
1889	2704
1890	1907
1890	2704
1891	1892
1891	1904
1891	1905
1891	1906
1892	1893
1892	1896
1892	1903
1892	1907
1892	1908
1892	1909
1893	1894
1893	1896
1893	1898
1893	1905
1893	1910
1893	1911
1893	1912
1894	1895
1894	1898
1894	1905
1894	1911
1894	1913
1895	1905
1895	1914
1895	1915
1895	1916
1896	1903
1896	1908
1896	1909
1896	1911
1896	1917
1896	1918
1897	1905
1897	1919
1898	1905
1899	1920
1899	1921
1899	1922
1899	1923
1899	1924
1899	1925
1899	1926
1899	1927
1899	1928
1899	1929
1899	1930
1899	1931
1899	1932
1899	1933
1899	1934
1900	1905
1900	1935
1901	1936
1901	1937
1901	1938
1901	1939
1901	1940
1901	1941
1901	1942
1902	1909
1902	2547
1904	1907
1904	2704
1904	5761
1905	2259
1905	2545
1905	2547
1905	5774
1905	5775
1907	1908
1907	2562
1907	2887
1907	2916
1907	2917
1908	1909
1908	3571
1908	4251
1908	4299
1908	4602
1908	5747
1908	5749
1909	4299
1909	4602
1909	5747
1909	5749
1910	1911
1910	5761
1910	5772
1912	1914
1912	2964
1912	3018
1912	3637
1912	3667
1912	3756
1912	4329
1912	4588
1912	4841
1914	1973
1914	2042
1914	2337
1914	4116
1914	4287
1914	4328
1914	4576
1914	5316
1914	5619
1914	5620
1915	2488
1915	4162
1915	7376
1915	8032
1917	1973
1917	2346
1917	2399
1917	2687
1917	2764
1917	2786
1917	2904
1917	2905
1917	2906
1917	2907
1917	2908
1917	2909
1917	2910
1918	2010
1918	2260
1918	3738
1918	3739
1918	3746
1918	4486
1918	4930
1918	5010
1918	5023
1918	5391
1918	5392
1919	2618
1919	2704
1919	3453
1919	3484
1919	3982
1919	4271
1919	5559
1919	5767
1919	5768
1920	2012
1920	2421
1920	3397
1920	6500
1920	6501
1920	6502
1920	6503
1920	6504
1921	2075
1921	2417
1921	4808
1921	5759
1921	6056
1921	6057
1921	6060
1921	6502
1921	6504
1921	6913
1921	7251
1922	2022
1922	2862
1923	3027
1923	3432
1923	4003
1923	4339
1923	4358
1923	4730
1923	4732
1923	4907
1923	5470
1924	2417
1924	7649
1925	2421
1925	2423
1925	2526
1925	2738
1925	2804
1925	5228
1925	5513
1925	5598
1925	6091
1925	6445
1925	6747
1925	7116
1925	7412
1925	7887
1925	8224
1926	2467
1926	3282
1926	7892
1927	3199
1927	3200
1927	3201
1927	4105
1927	4393
1927	5269
1927	7112
1927	8600
1928	2012
1928	2421
1928	2423
1928	7640
1928	7667
1928	8015
1929	2031
1929	4998
1929	5314
1929	5324
1929	5751
1929	6197
1929	7670
1929	8007
1929	8038
1929	8459
1929	8734
1929	8735
1929	8736
1929	8737
1929	8738
1931	2888
1931	3012
1932	3374
1932	4147
1934	2112
1934	2423
1935	2637
1935	3274
1936	2949
1936	4041
1936	4116
1936	4121
1936	4127
1936	4221
1936	4222
1937	4171
1937	4230
1938	2350
1938	4221
1938	4281
1938	5023
1938	7352
1938	7353
1940	2851
1940	3904
1940	6264
1940	8120
1941	3523
1941	7162
1941	8375
1941	8444
1942	7932
1943	1978
1943	1983
1943	1984
1943	1985
1943	1986
1943	1987
1943	1988
1943	1989
1943	1990
1943	1991
1943	1992
1944	2010
1944	2011
1944	2012
1944	2013
1944	2014
1944	2015
1944	2016
1944	2017
1944	2018
1944	2019
1944	2020
1944	2021
1944	2022
1944	2023
1944	2024
1944	2025
1944	2026
1944	2027
1944	2028
1944	2029
1944	2030
1944	2031
1944	2032
1944	2033
1944	2034
1944	2035
1944	2036
1944	2037
1944	2038
1944	2039
1945	2010
1945	2013
1945	2014
1945	2015
1945	2016
1945	2017
1945	2018
1945	2019
1945	2024
1945	2030
1945	2035
1945	2036
1945	2040
1946	1955
1946	1969
1946	1974
1946	2098
1946	2099
1946	2100
1946	2101
1946	2102
1946	2103
1946	2104
1946	2105
1946	2106
1946	2107
1946	2108
1946	2109
1946	2110
1946	2111
1946	2112
1946	2113
1946	2114
1946	2115
1946	2116
1946	2117
1946	2118
1946	2119
1946	2120
1946	2121
1946	2122
1946	2123
1946	2124
1946	2125
1946	2126
1946	2127
1946	2128
1947	1948
1947	1953
1947	1954
1947	1984
1947	2047
1947	2132
1947	2133
1947	2134
1947	2135
1947	2136
1947	2137
1947	2138
1947	2139
1947	2140
1948	2137
1948	2141
1948	2142
1949	1955
1949	2176
1949	2177
1949	2178
1949	2179
1950	2143
1950	2336
1950	2337
1950	2338
1950	2339
1951	2012
1951	2112
1951	2415
1951	2416
1951	2417
1951	2418
1951	2419
1951	2420
1951	2421
1951	2422
1951	2423
1951	2424
1951	2425
1952	1954
1952	1974
1952	2119
1952	2122
1952	2143
1952	2146
1952	2159
1952	2426
1952	2427
1952	2428
1953	1969
1953	1974
1953	1984
1953	1989
1953	2099
1953	2105
1953	2107
1953	2114
1953	2115
1953	2139
1953	2150
1953	2163
1953	2185
1953	2186
1953	2189
1953	2193
1953	2194
1953	2195
1953	2198
1953	2199
1953	2200
1953	2247
1953	2280
1953	2302
1953	2342
1953	2352
1953	2385
1953	2432
1953	2433
1953	2508
1953	2509
1953	2510
1953	2511
1953	2512
1953	2513
1953	2514
1953	2515
1953	2516
1953	2517
1953	2518
1954	1962
1954	1971
1954	1976
1954	1983
1954	1984
1954	2110
1954	2132
1954	2133
1954	2134
1954	2135
1954	2143
1954	2146
1954	2149
1954	2150
1954	2154
1954	2158
1954	2159
1954	2205
1954	2519
1954	2520
1954	2521
1955	1984
1955	1988
1955	2104
1955	2134
1955	2157
1955	2178
1955	2304
1955	2318
1955	2532
1955	2533
1955	2534
1955	2535
1955	2536
1955	2537
1956	1962
1956	1984
1956	1988
1956	2133
1956	2134
1956	2136
1956	2143
1956	2168
1956	2538
1956	2539
1956	2540
1956	2541
1957	2134
1957	2259
1957	2461
1957	2542
1957	2543
1957	2544
1957	2545
1957	2546
1957	2547
1958	2041
1958	2607
1958	2608
1958	2609
1958	2610
1958	2611
1959	2173
1959	2667
1959	2668
1959	2669
1959	2670
1959	2671
1959	2672
1959	2673
1960	2041
1960	2065
1960	2392
1960	2681
1960	2682
1960	2683
1960	2684
1960	2685
1960	2686
1960	2687
1960	2688
1961	1976
1961	2169
1962	1970
1962	2147
1962	2697
1963	2661
1963	2670
1963	2704
1964	2708
1964	2709
1966	2711
1966	2712
1968	1971
1968	2141
1968	2170
1968	2383
1968	2446
1968	2681
1968	2683
1968	2685
1968	2686
1968	3637
1968	3669
1968	3670
1968	4480
1968	4487
1968	4557
1968	4590
1968	4591
1968	4592
1968	4593
1968	4594
1968	4595
1968	4596
1968	4597
1968	4598
1968	4599
1968	4600
1968	4601
1969	2110
1969	2134
1969	2136
1969	4281
1969	4378
1969	5182
1970	1979
1970	1988
1970	2047
1970	2105
1970	2133
1970	2164
1970	2168
1970	2244
1970	2245
1970	2246
1970	2258
1970	2259
1970	2441
1970	2545
1970	2546
1970	2637
1970	2799
1970	3028
1970	3242
1970	3257
1970	3788
1970	4291
1970	4388
1970	4427
1970	4584
1970	5242
1970	5243
1971	1983
1971	1984
1971	2133
1971	2134
1971	2141
1971	2392
1971	2399
1971	2685
1971	3632
1971	3666
1971	4148
1971	4281
1971	4591
1972	2684
1972	6777
1973	1989
1973	2105
1973	2133
1973	2134
1973	2143
1973	2146
1973	2147
1973	2164
1973	2168
1973	2244
1973	2249
1973	2251
1973	2280
1973	2308
1973	2337
1973	2539
1973	2616
1973	2683
1973	2685
1973	2867
1973	3018
1973	3028
1973	3369
1973	3756
1973	6499
1973	7114
1973	7131
1974	1984
1974	2073
1974	2101
1974	2136
1974	2151
1974	2152
1974	2163
1974	4107
1974	5010
1974	5616
1974	5938
1975	2698
1975	3106
1975	4836
1975	5523
1975	6328
1976	2135
1976	2169
1976	6439
1977	2221
1977	2224
1977	2225
1977	2232
1977	5144
1978	1986
1978	1987
1978	1988
1978	7810
1978	7811
1979	1989
1979	2132
1979	2244
1979	2259
1979	2441
1979	2546
1979	2547
1979	2799
1979	2866
1979	3242
1979	4291
1979	7886
1980	2073
1980	2115
1980	2244
1980	2637
1980	2908
1980	4588
1980	7005
1980	7006
1980	7007
1981	3637
1981	3670
1981	4415
1981	4487
1981	4557
1981	4592
1981	4593
1981	4596
1981	4598
1981	4599
1981	5114
1981	7699
1981	7700
1981	8287
1983	1984
1983	1988
1983	1992
1983	2075
1983	2107
1983	2141
1983	2143
1983	2147
1983	2181
1983	2184
1983	2196
1983	2205
1983	2211
1983	3312
1983	3632
1983	3687
1983	4161
1983	4316
1983	4319
1983	4811
1983	4836
1983	5187
1983	5210
1983	5211
1983	5212
1983	5213
1984	1988
1984	1992
1984	2073
1984	2101
1984	2103
1984	2107
1984	2119
1984	2146
1984	2147
1984	2159
1984	2163
1984	2173
1984	2185
1984	2186
1984	2188
1984	2198
1984	2199
1984	2205
1984	2302
1984	2305
1984	2308
1984	2318
1984	2321
1984	2322
1984	2326
1984	2327
1984	2328
1984	2329
1984	2330
1984	2331
1984	2332
1984	2333
1984	2334
1984	2335
1984	2336
1984	2433
1984	2509
1984	3634
1984	3636
1984	4134
1984	4137
1984	4357
1984	4574
1984	4630
1984	4941
1984	5244
1984	5245
1984	5246
1984	5247
1984	5248
1984	5249
1988	1989
1988	2104
1988	2143
1988	2146
1988	2149
1988	2154
1988	2160
1988	2164
1988	5014
1989	2049
1989	2098
1989	2099
1989	2101
1989	2102
1989	2105
1989	2106
1989	2110
1989	2118
1989	2119
1989	2147
1989	2163
1989	2199
1989	2213
1989	2244
1989	2245
1989	2247
1989	2299
1989	2308
1989	2397
1989	2509
1989	2640
1989	2778
1989	3643
1989	3657
1989	5228
1990	2781
1990	3007
1990	3303
1990	4215
1991	2137
1991	2528
1992	2098
1992	2102
1992	2107
1992	2132
1992	2167
1992	2181
1992	2183
1992	2186
1992	2188
1992	2189
1992	2193
1992	2194
1992	2195
1992	2197
1992	2198
1992	2199
1992	2200
1992	2202
1992	2203
1992	2205
1992	2244
1992	2247
1992	2327
1992	2352
1992	2513
1992	2514
1992	2515
1992	2516
1992	5286
1992	5402
1992	5648
1992	7388
1993	2698
1993	2829
1993	3301
1993	3983
1993	4836
1993	5483
1993	5523
1993	5525
1994	3274
1994	4271
1994	4856
1994	6311
1994	6684
1995	1996
1995	3022
1995	3023
1995	5911
1995	6704
1996	2268
1996	2574
1996	2727
1996	2781
1996	6376
1997	2547
1997	2550
1997	2768
1997	2781
1997	6632
1999	2419
1999	2420
1999	2524
1999	2955
1999	3566
1999	4970
1999	5799
1999	5892
1999	6790
1999	6792
2002	2350
2002	2377
2002	3340
2002	3388
2002	3453
2002	3815
2002	4208
2002	5022
2002	5673
2002	5752
2002	5956
2002	6660
2002	7042
2002	7043
2002	7044
2002	7045
2002	7046
2003	2867
2004	5479
2004	6747
2004	6793
2004	6867
2004	7743
2004	7750
2005	4816
2006	2012
2006	2055
2006	3681
2006	4888
2006	5211
2006	8628
2006	8629
2006	8630
2006	8631
2007	4427
2010	2821
2010	2908
2010	3135
2010	3571
2010	4352
2010	4486
2010	4841
2010	4924
2010	5306
2010	5307
2010	5308
2010	5309
2010	5310
2010	5311
2010	5312
2010	5313
2011	2147
2011	6010
2012	2480
2012	2488
2012	2753
2012	2954
2012	3134
2012	3202
2012	3434
2012	3477
2012	3729
2012	3774
2012	4301
2012	4848
2012	4850
2012	4859
2012	4882
2012	5106
2012	5249
2012	5848
2012	5946
2012	6048
2012	6053
2012	6084
2012	6097
2012	6194
2012	6511
2012	6512
2012	6513
2012	6514
2012	6515
2012	6516
2013	2908
2013	3526
2013	3847
2013	4352
2013	4985
2013	5134
2013	6280
2014	2352
2014	2887
2014	2908
2014	3135
2014	3175
2014	3484
2014	4985
2014	5559
2015	4985
2016	4985
2016	5057
2016	5252
2016	5253
2016	7410
2016	7411
2016	7412
2017	4985
2018	4985
2019	4985
2020	6421
2021	2685
2022	2579
2022	2859
2022	4292
2022	4857
2022	4859
2022	5353
2022	5485
2022	5848
2022	6184
2022	6196
2022	7144
2022	7417
2022	7495
2022	7532
2022	7533
2023	5299
2024	3847
2024	4985
2024	8067
2025	2620
2025	2859
2025	3388
2025	3406
2025	4857
2025	4859
2025	5485
2025	5848
2025	6607
2025	7532
2026	4985
2026	8558
2027	3137
2027	3741
2027	3746
2027	5359
2028	7652
2029	2337
2029	2859
2029	5032
2029	6218
2029	6283
2030	2908
2030	4985
2031	2034
2031	6005
2032	4349
2032	6086
2032	8083
2032	9129
2032	9130
2033	3286
2033	8638
2034	3409
2034	4612
2034	4677
2034	5790
2034	5907
2034	6547
2034	9188
2034	9189
2034	9190
2034	9191
2035	4985
2036	4985
2037	3385
2039	3559
2041	2071
2041	2866
2041	3304
2041	3379
2041	3895
2041	3939
2041	4283
2041	4301
2041	4302
2041	4312
2041	4313
2041	4314
2041	4315
2041	4316
2041	4317
2041	4318
2041	4319
2041	4320
2041	4321
2041	4322
2041	4323
2042	3018
2042	3756
2043	2068
2043	4077
2043	4442
2044	5046
2045	2145
2045	2607
2046	2401
2046	3484
2046	5481
2046	5504
2047	2147
2047	2162
2047	2168
2047	2307
2047	2337
2047	2343
2047	2356
2047	2357
2047	2550
2047	2781
2047	2944
2047	3075
2047	3186
2047	3368
2047	3709
2047	4266
2047	4736
2047	5124
2047	5478
2047	5575
2047	5637
2047	5814
2047	5815
2047	5816
2047	5817
2047	5818
2047	5819
2047	5820
2047	5821
2047	5822
2047	5823
2047	5824
2047	5825
2047	5826
2047	5827
2047	5828
2048	2344
2048	2345
2048	2550
2048	3442
2048	3786
2048	3801
2048	3809
2048	3966
2048	4077
2048	4417
2048	5367
2048	5498
2048	6871
2048	6872
2048	6873
2048	6874
2049	2062
2049	2399
2049	2497
2049	3060
2049	3493
2049	3680
2049	3784
2049	4711
2050	2586
2050	6354
2051	2492
2051	4271
2051	4583
2052	3788
2052	5342
2052	7368
2054	4458
2056	2989
2056	7389
2057	3454
2057	3456
2058	2526
2058	4153
2059	4801
2059	6193
2059	6636
2059	7360
2059	7393
2061	5676
2062	5975
2063	3406
2064	2676
2065	2076
2065	2156
2065	2392
2065	2837
2065	3363
2065	3364
2065	3365
2065	3366
2065	3367
2065	3368
2065	3369
2065	3370
2065	3371
2066	2098
2066	2599
2066	2637
2066	2748
2066	3384
2066	3531
2066	3940
2066	4145
2066	4146
2066	4147
2067	2684
2067	3105
2067	4077
2067	4168
2068	2480
2068	2716
2068	3374
2069	2162
2069	2172
2069	2300
2069	2453
2069	4391
2069	4693
2069	5019
2069	5020
2070	2487
2070	2962
2070	3309
2070	3421
2070	5062
2070	5063
2071	2684
2071	2714
2071	3139
2071	3764
2071	4289
2071	4297
2071	4298
2071	5460
2071	5461
2071	5462
2071	5463
2072	2079
2072	2143
2072	2405
2072	2434
2072	2441
2072	2598
2072	3069
2072	3243
2072	4176
2072	4183
2072	4195
2072	5648
2072	5848
2072	5849
2072	5850
2072	5851
2073	2115
2073	2132
2073	2168
2073	2202
2073	2214
2073	2244
2073	2248
2073	2301
2073	2313
2073	2340
2073	2441
2073	2460
2073	2637
2073	2908
2073	3661
2073	4249
2073	4555
2073	4588
2073	5180
2073	5181
2074	3104
2074	4298
2074	4324
2074	5563
2074	5577
2075	2485
2075	2709
2075	5681
2075	5887
2075	6055
2075	6056
2075	6057
2075	6058
2075	6059
2075	6060
2075	6061
2075	6062
2075	6063
2075	6064
2076	2392
2076	2529
2076	3199
2076	3200
2076	3201
2076	3317
2076	6689
2076	6930
2077	2620
2077	4451
2077	4888
2077	6086
2077	7192
2077	7193
2078	2526
2078	2527
2078	2718
2078	3814
2078	4153
2078	4159
2078	4160
2078	4708
2078	5091
2078	5093
2078	5677
2078	6364
2078	7315
2079	2345
2079	3804
2079	5021
2079	5923
2079	6080
2079	6121
2079	6122
2079	6123
2080	2086
2080	2298
2080	2356
2080	2483
2080	7363
2080	7364
2081	2292
2081	2684
2082	3103
2082	7625
2083	4369
2083	6367
2083	7633
2083	7634
2085	2578
2085	2994
2085	3053
2085	5078
2085	7653
2086	2092
2087	3627
2088	4207
2088	5815
2088	7687
2089	6193
2089	7688
2091	7710
2092	2624
2092	2717
2092	2718
2092	4760
2092	8085
2092	8086
2093	2290
2093	2684
2093	4059
2093	4101
2093	4103
2093	4180
2093	4646
2093	4648
2093	4983
2093	5800
2093	5801
2093	5815
2093	6281
2093	7307
2093	7470
2093	7472
2094	2894
2094	3242
2094	3243
2094	6261
2094	6749
2094	8982
2098	2637
2099	2181
2099	2194
2099	3167
2099	3747
2099	4470
2099	4872
2099	4941
2100	2614
2100	2820
2101	2105
2101	2110
2101	2119
2101	2133
2101	2136
2101	2150
2101	2156
2101	2163
2101	2168
2101	2197
2101	2207
2101	2244
2101	2246
2101	2247
2101	2304
2101	2462
2101	2660
2101	2922
2101	3696
2101	4107
2101	4653
2101	4999
2101	5169
2101	5237
2101	5238
2101	5239
2101	5240
2101	5241
2102	2105
2102	2108
2102	2120
2102	2183
2102	2207
2102	2244
2102	2245
2102	2248
2102	2342
2102	2430
2102	2532
2102	2637
2102	3380
2102	3384
2102	3480
2102	3523
2102	3646
2102	4087
2102	4233
2102	4499
2102	5255
2102	5256
2103	2110
2103	2187
2103	2338
2103	2441
2103	2786
2103	2836
2104	3137
2104	3151
2104	3571
2104	3668
2104	3742
2104	4375
2104	4471
2104	5558
2105	2133
2105	2143
2105	2146
2105	2182
2105	2184
2105	2303
2105	2337
2105	2922
2105	3205
2105	3649
2105	4109
2106	2213
2106	2244
2106	3593
2106	3940
2107	2115
2107	2132
2107	2194
2107	2198
2107	2446
2107	2509
2107	2616
2107	2637
2107	2660
2107	5973
2108	2120
2108	2455
2108	2778
2108	3227
2108	3273
2108	4261
2108	5986
2108	5987
2109	3283
2109	4233
2110	2119
2110	2159
2110	2163
2110	2199
2110	2206
2110	2208
2110	2245
2110	2332
2110	2432
2110	3634
2110	5246
2111	2244
2111	2312
2111	4141
2111	4355
2111	4356
2112	2141
2112	2152
2112	2189
2112	2205
2112	2221
2112	2962
2112	3102
2112	4349
2112	4809
2112	4813
2112	4814
2112	4849
2112	4953
2112	4954
2112	5522
2112	5665
2112	6041
2112	6043
2112	6090
2112	6092
2112	6093
2112	6181
2112	6430
2112	6506
2112	6555
2112	6751
2112	6752
2112	6753
2112	6754
2112	6755
2112	6756
2112	6757
2113	3891
2114	2194
2114	3614
2114	4079
2114	4470
2114	4497
2115	2156
2115	2163
2115	2193
2115	2194
2115	2199
2115	2215
2115	2217
2115	2245
2115	2247
2115	2280
2115	2342
2115	2509
2115	2512
2115	3646
2115	4079
2117	3384
2117	4145
2117	7416
2118	2748
2118	3145
2118	7418
2119	2147
2119	2156
2119	2168
2119	2192
2119	2216
2119	2379
2119	2385
2119	2432
2119	2441
2119	2637
2119	2867
2119	4151
2120	2123
2120	2247
2120	2509
2120	2766
2120	2843
2120	3227
2120	3355
2120	3654
2120	3906
2120	4147
2120	4234
2120	4358
2120	5987
2120	7698
2121	2432
2121	3637
2121	3667
2121	3669
2121	3670
2121	3671
2121	3673
2121	4487
2121	4557
2121	4593
2121	4594
2121	4596
2121	4598
2121	7659
2121	7699
2121	7700
2121	7701
2124	2423
2124	6038
2125	2244
2125	2843
2127	3922
2127	6891
2128	7702
2129	2817
2129	3129
2129	3292
2129	3482
2129	3767
2129	4480
2129	4481
2129	4482
2129	4483
2130	2875
2130	3470
2132	2135
2132	2194
2132	2244
2132	2430
2132	2660
2133	2143
2133	2145
2133	2146
2133	2147
2133	2156
2133	2175
2133	2182
2133	2294
2133	2306
2133	2508
2133	2637
2133	3634
2133	5234
2133	5842
2133	5983
2133	5984
2133	5985
2134	2143
2134	2146
2134	2147
2134	2163
2134	2167
2134	2539
2134	5098
2134	5983
2134	5984
2135	2137
2135	2138
2135	2139
2135	2142
2135	2153
2135	2159
2135	2176
2135	2182
2135	2258
2135	6439
2135	6440
2136	2151
2136	2163
2136	2167
2136	2363
2137	2341
2137	5280
2137	7797
2138	2139
2139	2182
2140	2771
2140	3101
2140	7270
2141	2181
2141	2184
2141	2187
2141	2188
2141	2194
2141	2777
2141	3130
2141	3632
2141	3666
2141	4153
2141	4434
2141	5049
2141	5213
2141	5280
2141	5320
2141	5321
2141	5322
2141	5323
2141	5324
2141	5325
2141	5326
2142	2385
2142	2806
2142	4161
2142	4471
2142	5608
2143	2147
2143	2159
2143	2164
2143	2166
2143	2201
2143	2244
2143	2337
2143	2519
2143	2799
2143	3028
2143	4078
2143	4429
2143	4981
2143	4982
2143	4983
2143	4984
2144	2289
2144	2399
2144	2519
2144	2821
2144	3295
2144	3499
2144	4841
2145	2607
2146	2147
2146	2159
2146	2163
2146	2175
2146	2201
2146	2244
2146	2337
2146	2922
2146	3028
2146	3649
2146	4078
2146	4109
2146	4981
2147	2150
2147	2164
2147	2168
2147	2201
2147	2202
2147	2222
2147	2244
2147	2245
2147	2246
2147	2248
2147	2249
2147	2251
2147	2259
2147	2305
2147	2337
2147	2388
2147	2539
2147	2545
2147	2546
2147	2547
2147	2616
2147	2790
2147	2799
2147	2877
2147	2922
2147	3018
2147	3028
2147	3309
2147	3756
2147	5616
2147	6495
2147	6496
2147	6497
2147	6498
2147	6499
2148	4541
2148	4564
2149	2708
2149	2804
2149	3474
2149	3640
2149	3659
2149	3687
2149	7350
2150	2163
2150	2250
2150	7420
2151	5010
2151	5938
2152	5023
2152	7603
2153	7731
2154	2761
2154	3306
2154	3393
2154	3406
2154	4816
2154	5401
2154	6268
2154	6504
2154	6621
2154	7215
2155	7292
2156	2167
2156	2448
2156	2469
2156	2658
2156	3028
2156	5238
2157	2533
2158	3640
2158	3659
2158	7814
2159	2208
2159	2520
2159	4108
2159	5241
2159	6440
2161	2338
2161	2731
2161	2887
2161	2888
2161	2889
2161	2890
2162	2300
2162	2383
2162	3376
2162	3557
2162	3663
2162	3679
2162	4365
2162	4591
2162	4784
2162	5018
2163	2199
2163	2207
2163	2245
2163	2539
2163	2685
2163	3736
2163	4999
2163	5173
2163	5174
2164	2194
2164	2901
2164	3509
2164	3802
2164	3810
2164	4383
2164	5155
2165	2167
2165	3406
2165	4192
2165	4386
2165	5153
2165	5661
2165	5662
2167	2508
2167	2539
2167	2541
2167	4717
2167	5464
2168	3638
2168	6017
2168	7298
2170	3669
2170	4557
2170	4592
2170	4593
2170	4594
2170	4599
2171	2711
2171	7812
2172	2870
2172	4502
2172	7813
2173	2872
2173	7815
2175	5174
2175	7906
2176	2565
2176	3277
2176	3474
2176	3687
2176	3899
2176	5372
2176	5444
2176	5445
2177	2351
2177	3110
2177	3277
2177	3758
2177	5449
2177	5450
2177	5451
2178	2318
2178	2534
2178	3129
2180	2845
2180	2896
2180	2897
2180	2898
2180	2899
2180	2900
2181	2187
2181	2205
2181	2512
2181	3167
2181	3614
2181	4940
2182	2243
2182	3028
2182	3494
2182	4221
2182	5168
2183	2336
2183	2338
2183	2532
2183	5216
2183	5217
2183	5218
2183	5219
2183	5220
2183	5221
2183	5222
2184	2205
2184	2304
2184	2660
2184	3729
2184	5257
2184	5258
2184	5259
2184	5260
2184	5261
2185	2186
2185	2188
2185	2342
2185	2509
2185	2868
2185	4079
2185	4273
2185	4872
2185	5278
2186	2188
2186	2189
2186	2342
2186	4079
2187	4653
2188	2205
2188	3636
2188	5343
2188	5344
2189	2210
2189	2637
2189	5419
2189	5421
2190	2673
2190	2686
2190	4661
2190	5663
2190	5664
2190	5665
2191	2520
2192	2320
2192	2327
2192	5663
2192	5954
2192	5955
2193	2194
2193	2508
2193	2616
2193	3634
2193	4320
2194	2199
2194	2207
2194	2211
2194	2258
2194	2513
2194	2660
2194	5663
2197	2205
2198	3242
2199	2205
2199	2473
2199	2660
2199	4259
2200	2660
2201	2248
2201	2338
2201	2389
2201	2642
2201	5216
2201	5250
2201	5871
2201	5872
2202	2303
2202	3638
2202	4146
2202	4731
2202	6498
2202	6731
2204	3772
2204	4694
2204	4702
2204	6992
2205	2210
2205	2294
2205	2513
2205	2640
2205	4567
2205	4942
2205	5286
2205	5323
2205	5336
2205	5337
2205	5402
2205	7132
2208	2306
2208	2637
2208	7349
2209	2441
2209	2866
2209	4471
2210	4567
2211	2437
2211	3922
2211	3938
2211	4165
2211	4312
2211	4315
2211	4544
2211	4707
2211	5213
2212	4315
2213	2221
2213	2244
2213	2364
2213	2398
2213	2467
2213	2637
2213	2876
2213	4122
2213	7241
2213	7738
2213	7739
2214	2446
2218	2762
2218	2913
2218	2914
2218	2915
2219	2573
2219	3118
2219	3182
2220	2221
2220	2222
2220	2224
2220	2225
2220	2232
2220	2562
2220	2571
2220	3187
2221	2416
2221	2553
2221	2572
2221	2913
2221	3187
2221	3512
2222	2391
2222	2571
2222	2913
2222	3501
2222	3505
2222	3506
2222	3507
2222	3512
2222	3516
2222	3517
2222	3518
2222	3519
2222	4170
2222	5594
2223	2882
2223	3303
2224	2232
2224	2913
2224	3512
2224	5133
2225	2227
2225	2913
2225	3512
2227	2584
2227	3820
2227	3835
2227	4606
2227	6933
2229	5133
2233	2441
2233	2579
2233	2612
2233	3461
2233	4412
2234	2525
2234	6427
2234	7238
2235	2433
2235	2473
2235	3486
2235	3489
2235	3744
2235	4938
2241	3986
2241	4913
2243	2301
2243	2519
2244	2245
2244	2248
2244	2249
2244	2299
2244	2308
2244	2439
2244	2440
2244	2522
2244	2614
2244	2637
2244	2804
2244	3450
2244	3618
2244	3643
2244	3647
2244	3657
2244	3981
2244	4039
2244	5232
2244	5233
2245	2248
2245	2354
2245	2448
2245	2660
2245	3646
2245	4259
2246	2306
2246	2532
2246	3651
2246	5971
2247	2307
2247	2350
2247	2473
2247	2509
2247	2637
2247	2646
2247	3634
2247	3687
2247	5078
2248	2317
2248	2434
2248	2637
2248	5971
2249	2306
2250	2267
2250	2629
2250	3488
2250	3979
2250	3991
2250	3993
2250	4386
2250	5403
2250	6207
2251	4083
2252	2255
2252	7925
2254	2255
2254	3555
2254	7925
2255	3555
2256	2683
2256	2685
2256	2686
2256	4654
2256	6337
2257	2317
2257	2480
2257	2890
2257	3374
2257	3376
2257	3588
2257	4126
2257	4258
2257	4339
2257	4730
2257	4967
2257	5655
2257	5656
2257	6578
2257	6579
2258	2336
2258	2338
2258	3923
2258	5023
2259	2545
2259	2546
2259	2547
2259	5176
2260	3571
2260	3742
2260	3755
2260	4244
2260	4371
2260	4372
2260	4841
2260	5396
2260	6668
2260	7305
2261	2426
2261	3369
2261	5210
2261	5971
2261	7907
2262	3060
2262	4966
2264	2306
2264	2313
2264	2465
2264	2793
2264	3621
2264	4656
2264	4785
2267	2269
2267	3433
2268	2864
2268	3303
2268	4215
2268	4216
2268	4217
2268	4218
2268	4219
2268	4220
2269	4668
2269	4725
2270	2491
2270	3507
2270	4460
2270	6170
2270	6720
2270	6721
2271	3521
2271	3635
2271	3960
2271	6442
2271	6762
2272	3011
2272	3405
2272	3409
2272	5698
2272	5711
2272	7081
2276	4415
2276	5791
2276	5846
2276	6118
2276	7255
2276	7256
2276	7257
2278	2596
2279	2526
2279	5129
2279	6083
2279	6371
2280	2316
2280	2354
2280	3261
2280	3262
2280	5228
2280	7793
2281	2582
2282	2692
2282	2696
2283	6680
2283	7834
2285	2496
2289	2780
2289	3439
2289	4301
2289	8115
2291	6951
2292	2294
2292	2295
2292	5273
2293	2581
2293	3241
2293	4711
2293	5122
2294	2433
2294	2517
2294	2670
2294	2671
2294	2718
2294	5473
2294	5669
2294	7818
2298	2433
2298	2473
2299	2379
2299	2385
2299	2441
2299	2888
2299	3609
2299	4288
2299	4289
2299	4405
2299	4407
2299	4408
2299	4409
2300	2383
2300	3503
2300	3678
2300	3679
2300	4591
2300	5000
2301	2786
2301	2867
2301	5180
2301	5181
2302	5204
2303	2313
2303	2390
2303	2513
2303	4742
2303	5057
2303	5251
2303	5252
2303	5253
2303	5254
2304	2383
2304	2944
2304	3617
2304	5866
2304	5867
2304	5868
2305	2438
2305	5921
2305	5922
2306	2323
2306	2799
2306	5046
2306	5964
2306	5965
2306	5966
2307	2440
2307	3424
2307	5367
2307	5976
2308	2486
2308	2922
2308	3649
2309	4711
2310	2434
2310	5971
2310	6005
2311	2660
2311	5234
2312	4137
2313	2336
2313	2338
2313	2836
2313	4032
2313	4338
2313	6712
2313	6713
2314	5003
2314	6758
2315	3565
2315	3581
2315	3606
2315	3732
2315	4081
2315	4098
2315	5675
2315	6376
2315	6952
2316	2385
2317	2887
2317	4686
2317	5480
2317	5559
2317	6659
2317	6986
2317	6987
2318	2533
2318	2534
2318	2535
2318	2536
2318	2537
2319	7366
2320	2432
2320	5666
2321	4544
2321	5912
2325	4500
2326	4872
2329	8117
2333	8118
2334	5356
2334	9015
2336	2338
2336	2838
2336	4042
2336	4053
2337	2343
2337	2344
2337	2345
2337	2354
2337	2375
2337	2550
2337	2618
2337	2684
2337	2729
2337	2766
2337	2781
2337	2850
2337	2867
2337	2890
2337	2929
2337	3142
2337	3186
2337	3245
2337	3280
2337	3305
2337	3521
2337	3582
2337	3686
2337	3732
2337	3786
2337	3787
2337	3793
2337	3794
2337	3796
2337	3797
2337	3798
2337	3801
2337	3806
2337	3809
2337	3812
2337	3813
2337	3814
2337	3815
2337	3824
2337	3825
2337	3835
2337	3836
2337	3838
2337	3851
2337	3856
2337	3857
2337	3862
2337	3863
2337	3865
2337	3868
2337	3871
2337	4101
2337	4170
2337	4180
2337	4359
2337	4637
2337	4640
2337	4644
2337	4645
2337	5401
2337	5402
2337	5403
2337	5404
2337	5405
2337	5406
2337	5407
2337	5408
2337	5409
2337	5410
2337	5411
2337	5412
2337	5413
2337	5414
2338	2626
2338	2836
2338	2837
2338	2870
2338	3439
2338	3785
2338	4050
2338	4060
2338	4061
2338	5498
2338	6403
2338	6404
2338	6405
2338	6406
2339	4139
2340	2455
2340	2625
2340	2724
2340	2832
2340	2870
2340	4779
2341	2377
2341	2433
2341	2527
2341	3574
2341	3612
2341	3737
2341	3805
2341	3971
2341	4216
2341	4433
2341	4711
2341	5223
2341	5224
2341	5225
2341	5226
2341	5227
2341	5228
2341	5229
2342	2508
2342	2777
2342	4653
2343	3572
2343	4176
2343	5124
2343	5814
2344	2708
2344	2709
2345	2405
2345	3245
2345	4502
2345	4784
2345	5820
2346	2381
2346	2681
2346	2683
2346	2685
2346	2686
2346	5905
2346	6610
2346	6611
2347	4659
2347	4679
2347	6619
2348	3609
2348	6890
2349	2730
2349	3186
2349	3573
2349	4116
2349	4390
2349	5332
2350	3432
2350	3453
2350	3466
2350	3917
2350	4347
2350	5314
2350	7070
2350	7071
2350	7072
2350	7073
2351	2550
2351	3240
2354	2709
2354	3635
2354	4090
2354	4165
2354	4305
2354	4696
2354	5363
2354	5443
2354	5906
2355	3438
2356	2383
2356	4840
2356	7376
2356	7887
2357	2363
2358	2617
2358	3242
2358	3532
2358	3534
2358	3722
2358	4986
2359	4290
2360	4966
2360	6498
2360	7781
2360	8059
2361	8060
2362	2522
2363	5053
2363	8092
2364	2874
2364	3681
2365	2842
2365	5446
2365	5447
2365	5953
2365	8273
2366	3186
2368	3446
2368	3679
2370	2527
2370	4086
2370	7327
2370	8284
2371	3027
2371	3837
2373	2955
2373	3010
2373	3687
2373	3814
2374	3282
2375	2526
2375	2527
2375	2842
2375	5970
2375	7033
2375	7085
2375	8405
2376	2509
2379	2731
2379	3249
2379	3481
2379	3493
2379	3494
2380	3498
2380	3499
2381	2387
2381	2453
2381	2890
2381	3366
2381	3530
2381	3572
2381	3629
2381	3691
2381	3692
2381	3693
2381	3694
2382	2385
2382	3935
2383	2384
2383	2387
2383	2435
2383	2901
2383	3386
2383	3561
2383	3562
2383	3631
2383	3784
2383	4387
2383	4624
2383	4626
2383	4627
2383	4628
2384	2681
2384	2683
2384	2685
2385	2731
2385	2777
2385	3009
2385	3137
2385	3246
2385	3248
2385	3495
2385	3613
2385	3622
2385	4030
2385	4471
2385	4695
2385	4700
2385	4701
2385	4702
2385	4703
2385	4704
2385	4705
2387	2388
2387	2681
2387	2683
2387	2685
2387	2896
2387	3699
2387	4654
2387	5117
2388	2436
2388	2667
2388	3242
2388	3243
2388	3376
2388	3678
2388	3679
2388	3730
2388	4627
2388	4654
2388	5114
2389	4042
2389	5250
2390	2468
2390	2548
2390	2549
2390	2852
2390	3591
2391	3376
2391	3436
2391	3722
2391	6205
2392	2447
2392	3248
2392	3364
2392	3366
2392	3368
2392	3369
2392	3371
2392	3491
2392	3700
2392	3725
2392	4391
2392	4629
2392	4635
2392	5998
2392	6412
2392	6413
2393	3633
2394	3179
2394	3674
2394	4468
2394	5003
2394	5004
2394	5008
2394	5832
2394	6300
2394	6839
2395	4174
2395	4176
2395	4183
2395	4381
2395	6161
2396	2511
2397	7697
2399	3637
2399	5023
2401	2621
2401	2647
2401	3204
2403	3177
2403	6668
2404	2866
2404	3895
2404	4233
2404	4234
2404	4376
2404	5189
2405	6121
2406	3283
2407	3242
2407	3243
2407	4176
2410	7804
2411	3538
2411	6446
2414	2709
2414	3521
2415	4227
2415	4228
2415	4229
2416	3566
2416	3781
2416	4147
2416	4416
2416	4814
2416	4861
2416	5489
2416	5522
2416	6048
2416	6084
2416	6085
2416	6086
2417	2910
2417	3070
2417	3468
2417	3469
2417	4379
2417	4444
2417	4814
2417	4954
2417	5629
2417	5848
2417	6044
2417	6053
2417	6100
2417	6101
2418	5517
2419	2420
2419	2524
2419	3019
2419	4970
2419	5892
2419	6789
2419	6790
2419	6793
2419	6799
2420	2524
2420	3019
2420	3282
2420	5892
2420	6789
2420	6790
2421	2753
2421	2899
2421	2954
2421	3102
2421	3283
2421	3462
2421	3566
2421	3791
2421	4349
2421	4604
2421	4661
2421	5122
2421	5249
2421	5301
2421	5981
2421	6042
2421	6043
2421	6044
2421	6052
2421	6092
2421	6506
2421	6604
2421	6751
2421	7054
2422	3011
2422	4529
2422	5517
2422	7203
2422	7205
2423	2859
2423	2989
2423	3134
2423	3202
2423	3408
2423	3462
2423	4604
2423	4804
2423	4851
2423	4857
2423	4859
2423	5522
2423	6042
2423	6088
2423	6283
2423	6751
2423	7255
2423	7637
2423	7638
2423	7639
2424	2710
2424	2859
2424	2862
2424	3202
2424	3729
2424	4626
2424	6084
2424	6603
2424	8083
2424	8573
2424	8574
2424	8575
2425	3157
2425	3526
2425	3704
2425	3802
2425	4260
2425	6046
2425	6050
2425	6188
2425	6266
2425	6335
2425	6542
2425	6622
2425	7181
2425	8384
2425	8689
2425	8885
2425	9124
2425	9126
2425	9127
2425	9128
2426	2908
2426	5971
2426	7909
2427	2684
2427	2899
2427	7773
2427	8565
2427	8566
2428	2780
2429	3275
2430	2441
2430	2628
2430	2745
2430	2867
2430	3380
2430	3421
2430	3468
2430	4730
2430	4731
2430	4732
2430	4733
2430	4734
2430	4735
2431	3242
2432	4699
2433	2473
2433	2520
2433	2554
2433	2558
2433	2671
2433	2717
2433	2718
2433	2719
2433	2958
2433	3814
2433	3971
2433	3976
2433	4156
2433	4499
2433	4711
2433	4759
2433	4768
2433	5097
2433	5099
2433	5101
2433	5102
2433	5473
2433	5669
2433	5670
2433	5671
2433	5672
2433	5673
2433	5674
2433	5675
2433	5676
2433	5677
2433	5678
2433	5679
2433	5680
2433	5681
2433	5682
2433	5683
2433	5684
2433	5685
2433	5686
2433	5687
2433	5688
2433	5689
2433	5690
2433	5691
2433	5692
2434	2452
2434	2617
2434	2618
2434	2631
2434	3261
2434	3940
2434	4101
2434	4113
2434	4347
2434	5836
2435	5176
2436	2682
2437	4312
2437	4550
2437	4567
2437	4941
2437	5234
2437	5911
2437	5912
2437	5913
2438	5926
2439	2730
2439	2845
2439	3520
2439	3596
2439	4295
2439	4736
2439	5041
2440	4122
2441	2442
2441	2460
2441	2731
2441	2786
2441	2866
2441	3009
2441	3132
2441	3133
2441	3171
2441	3304
2441	3379
2441	3494
2441	3571
2441	4338
2441	5608
2441	5622
2442	2462
2442	2867
2442	3132
2442	3304
2442	3379
2442	3484
2442	4653
2443	3484
2443	5559
2444	4389
2445	3499
2446	2457
2447	2681
2447	2683
2447	2685
2447	2686
2447	3692
2447	6610
2447	6678
2448	3273
2448	5183
2448	5959
2449	3922
2449	7292
2451	2637
2451	3615
2451	4395
2451	4882
2452	3198
2452	4986
2453	2881
2453	6160
2453	6431
2453	7386
2453	7387
2454	4927
2454	5168
2455	2637
2455	4745
2455	5986
2456	3534
2456	5264
2456	7414
2456	7415
2457	2663
2457	3223
2457	3652
2457	3805
2457	4165
2457	4166
2458	4345
2459	6262
2459	7709
2460	2866
2460	2872
2461	3477
2461	5941
2463	2638
2463	2870
2463	3924
2463	4170
2463	4887
2464	2879
2464	3408
2464	6741
2464	8112
2465	5266
2467	2645
2467	3438
2467	3441
2467	3574
2467	3813
2467	3957
2467	3973
2467	4380
2467	4580
2467	4962
2467	5087
2467	5193
2467	5365
2467	5374
2467	5916
2467	6105
2467	6169
2467	7408
2467	7859
2468	2850
2468	3574
2468	3638
2468	3918
2468	4911
2468	5023
2469	3787
2469	4393
2470	2842
2470	3588
2470	8408
2470	8409
2470	8410
2470	8411
2470	8412
2470	8413
2470	8414
2473	4708
2475	4376
2475	4908
2475	5069
2475	5949
2476	5232
2477	5232
2478	2534
2478	3349
2478	4414
2478	4415
2478	4416
2478	4417
2478	4418
2478	4419
2478	4420
2478	4421
2478	4422
2478	4423
2478	4424
2478	4425
2478	4426
2479	3128
2479	3287
2479	3738
2479	3749
2479	3757
2479	4286
2479	4330
2479	4575
2479	4576
2479	4577
2479	4578
2480	3384
2480	3468
2480	3469
2480	4866
2480	4879
2480	4880
2480	4881
2480	5892
2480	6041
2480	6043
2480	6912
2484	4460
2484	7374
2485	2600
2485	6972
2485	7438
2486	2786
2487	3492
2488	2522
2488	2529
2488	2716
2488	3013
2488	3906
2488	4443
2488	4913
2488	5079
2488	5508
2488	5839
2488	6294
2488	6295
2488	6296
2488	6319
2488	6329
2488	6602
2488	6841
2488	7725
2488	7798
2488	7799
2488	7800
2488	7801
2494	7242
2495	2698
2496	6375
2496	8618
2496	8619
2497	3195
2498	3243
2498	8620
2503	4787
2503	7376
2508	4717
2509	2637
2509	3636
2510	2852
2510	4730
2510	5262
2510	5263
2510	5651
2511	2821
2511	2888
2511	2922
2511	3505
2511	3609
2511	3649
2511	7155
2512	3614
2512	5204
2512	5336
2512	5914
2513	6589
2514	5613
2514	5913
2514	7717
2514	8263
2514	8264
2514	8265
2514	8266
2514	8267
2514	8268
2514	8269
2514	8270
2515	4754
2515	8271
2517	2670
2517	2671
2517	3107
2517	4298
2517	4702
2517	5098
2517	5669
2517	5670
2517	6364
2517	7819
2517	8288
2517	8289
2517	8290
2517	8291
2519	3499
2519	4761
2520	4708
2520	4759
2520	5425
2522	2678
2522	2717
2522	2959
2522	3013
2522	3241
2522	3432
2522	4091
2522	4163
2522	4521
2522	4913
2522	5508
2522	5646
2522	5695
2522	5839
2522	5892
2522	6317
2522	6318
2522	6319
2522	6320
2522	6321
2522	6322
2522	6323
2523	4298
2523	5273
2523	6146
2523	6150
2523	6377
2524	3019
2524	4970
2524	6790
2524	6793
2524	6799
2524	6800
2525	2603
2525	2914
2525	3474
2525	3963
2525	5166
2525	5787
2525	5845
2525	6380
2525	6660
2525	7079
2525	7239
2526	2527
2526	2579
2526	2670
2526	3322
2526	3591
2526	3977
2526	4153
2526	4154
2526	4155
2526	4156
2526	4160
2526	6110
2526	6428
2527	4153
2527	4160
2527	5091
2527	5098
2527	6392
2527	7316
2527	7317
2529	4574
2529	6886
2530	3314
2530	8684
2532	2661
2532	2777
2532	3532
2532	4587
2532	5327
2532	5328
2532	5946
2532	5947
2532	5948
2533	2947
2533	3126
2533	3127
2533	3140
2533	3141
2533	4243
2534	7063
2534	7064
2538	3029
2538	3482
2538	3488
2538	4187
2538	4188
2538	4656
2538	4891
2538	5152
2538	5499
2538	5774
2538	5821
2538	6103
2538	6104
2542	2544
2542	3189
2542	4286
2542	4470
2542	4579
2542	4580
2542	4581
2542	4582
2543	3477
2543	5455
2544	3103
2544	3748
2544	3767
2544	4288
2544	4562
2544	5333
2544	5338
2544	6999
2545	2547
2545	3364
2545	7297
2546	2547
2548	2549
2548	2553
2548	2554
2548	3142
2548	4411
2548	4412
2548	4413
2549	2554
2549	2623
2549	5040
2550	2629
2550	3639
2550	3740
2550	4090
2550	4093
2550	4113
2550	5842
2550	5843
2550	5844
2551	7331
2552	5843
2552	6443
2553	8006
2554	2623
2554	5156
2556	4712
2558	2716
2559	2583
2562	3185
2564	2698
2564	3106
2564	3301
2564	3302
2566	3186
2566	3510
2567	2716
2567	2959
2568	4977
2569	2949
2569	3430
2569	5977
2569	5978
2570	6414
2571	3374
2571	6170
2571	6489
2571	6521
2572	6642
2573	3182
2573	6670
2574	2588
2574	4502
2575	2577
2575	2580
2575	2905
2575	3033
2575	3425
2575	3799
2575	3979
2575	4661
2575	5429
2575	5848
2575	6266
2575	7226
2575	7227
2575	7228
2575	7229
2576	5203
2576	7233
2576	7234
2577	5708
2578	3049
2578	7294
2579	2684
2579	3278
2579	4317
2579	4650
2579	4786
2579	4814
2579	6325
2579	7525
2579	7526
2579	7527
2579	7528
2579	7529
2579	7530
2579	7531
2580	5845
2584	2591
2584	3685
2584	4633
2584	4918
2584	6357
2584	7204
2585	2770
2585	3922
2585	4166
2586	8109
2587	3408
2587	7392
2587	8536
2588	3443
2588	6286
2592	3687
2592	5445
2592	5817
2597	3551
2597	3552
2597	3553
2597	3554
2598	2944
2598	3241
2598	3318
2598	3523
2598	3572
2598	4087
2598	5124
2599	2628
2599	2637
2599	6008
2601	3889
2601	6615
2602	3376
2602	3692
2602	4824
2602	6884
2603	7238
2604	8010
2607	4376
2608	5931
2609	3282
2609	3938
2609	3939
2609	4545
2609	5611
2610	7020
2612	3936
2612	4258
2612	4432
2614	3206
2614	5045
2615	5956
2616	4357
2617	2618
2617	3940
2617	4101
2617	4180
2617	4794
2617	5594
2617	6072
2617	6073
2618	3844
2618	3940
2618	5836
2618	6072
2618	6082
2619	3230
2620	2829
2621	2647
2621	6943
2621	6944
2623	5076
2623	5923
2623	5924
2624	4661
2625	3321
2625	3404
2625	3829
2625	5309
2625	6330
2625	6745
2625	6888
2625	6946
2625	6947
2625	6948
2625	6949
2625	6950
2626	3248
2626	4147
2626	4706
2626	5953
2627	2943
2627	3070
2628	2639
2628	2892
2628	3206
2628	6193
2628	6955
2629	3437
2629	3969
2630	4784
2632	3940
2635	2959
2637	2646
2637	2648
2637	2764
2637	2780
2637	2816
2637	3380
2637	3381
2637	3633
2637	3634
2637	3638
2637	3649
2637	3660
2637	4087
2637	4151
2637	4170
2637	4649
2637	4736
2637	7031
2638	2944
2639	6669
2644	3827
2645	2670
2645	2718
2645	3107
2645	4137
2645	4298
2645	4702
2645	4926
2645	5293
2645	8288
2646	2664
2646	2956
2646	3784
2646	4736
2646	4777
2646	8391
2647	8577
2648	2748
2648	3206
2648	3380
2648	3381
2649	2780
2649	3640
2650	4708
2650	8284
2651	2959
2651	3173
2655	8897
2659	3184
2659	5972
2660	2778
2660	3659
2660	6659
2660	7328
2660	7329
2662	2843
2662	3807
2662	7419
2663	2860
2663	2888
2663	2906
2663	3652
2663	3979
2663	3994
2663	4709
2663	5443
2663	7996
2664	4169
2664	4320
2664	4363
2664	4982
2664	6774
2664	7490
2664	8335
2664	8336
2664	8337
2664	8338
2664	8339
2665	3306
2666	3340
2666	4540
2666	6909
2666	9194
2666	9255
2667	2669
2667	2672
2667	4223
2667	4286
2668	2669
2668	2672
2668	2823
2668	6280
2669	2670
2669	2671
2669	5669
2669	5670
2669	7816
2669	7817
2670	2717
2670	3224
2670	4137
2670	5072
2670	5296
2670	5669
2670	5678
2670	5679
2670	5690
2670	7003
2670	7818
2670	7819
2670	7820
2671	2718
2671	5669
2671	5678
2671	5679
2671	5690
2672	7817
2673	3328
2674	3635
2674	4604
2675	2961
2675	3525
2675	7360
2675	7544
2675	7751
2677	5598
2678	5823
2678	6370
2678	8324
2680	5791
2681	2685
2681	2890
2681	2896
2681	2910
2681	2911
2681	3367
2681	3532
2681	3533
2681	3578
2681	3629
2681	3694
2681	3695
2681	3696
2681	3697
2681	3698
2681	3699
2681	3700
2681	3701
2681	3702
2681	3703
2681	3704
2681	3705
2682	2687
2682	2790
2682	3063
2682	3531
2682	3533
2682	3556
2682	3629
2682	3694
2682	3700
2682	3706
2682	3707
2682	3708
2682	3709
2682	3710
2682	3711
2682	3712
2682	3713
2682	3714
2682	3715
2682	3716
2683	2687
2683	2896
2683	3063
2683	3271
2683	3282
2683	3364
2683	3532
2683	3578
2683	3629
2683	3691
2683	3693
2683	3694
2683	3696
2683	3697
2683	3700
2683	3701
2683	3703
2683	3710
2683	3717
2683	3718
2683	3719
2683	3720
2683	3721
2683	3722
2683	3723
2683	3724
2683	3725
2683	3726
2683	3727
2684	2868
2684	3103
2684	4175
2684	4285
2684	4286
2684	4289
2684	4302
2684	4315
2684	4324
2684	4567
2684	4568
2684	4569
2684	4570
2684	4571
2684	4572
2684	4573
2684	4574
2685	2764
2685	2768
2685	2872
2685	2890
2685	2896
2685	3367
2685	3371
2685	3527
2685	3530
2685	3531
2685	3532
2685	3533
2685	3556
2685	3578
2685	3692
2685	3696
2685	3697
2685	3698
2685	3699
2685	3700
2685	3703
2685	3722
2685	3723
2685	3724
2685	4388
2685	4629
2685	4630
2685	4631
2685	4632
2685	4633
2685	4634
2685	4635
2686	2850
2686	2890
2686	3530
2686	3578
2686	3694
2686	3696
2686	3697
2686	3700
2686	3701
2686	3703
2686	3722
2686	3723
2686	3725
2686	4388
2686	5340
2686	5341
2687	3242
2687	3710
2687	4843
2687	7051
2687	7053
2688	4843
2692	4459
2692	5429
2693	6450
2693	7232
2694	2708
2694	3848
2694	6502
2694	7252
2695	3455
2695	3456
2695	3466
2695	5135
2695	5512
2695	6086
2695	6793
2697	2731
2697	2867
2697	3120
2697	4337
2697	4727
2697	4728
2697	5740
2698	2710
2698	3019
2698	3026
2698	3575
2698	4986
2698	6287
2698	6295
2698	6367
2698	6607
2698	6835
2699	2710
2699	3575
2699	6140
2699	6367
2699	7190
2700	5799
2700	7011
2701	5522
2701	5575
2701	8921
2702	6140
2703	6121
2704	2917
2704	3139
2704	5765
2704	5766
2705	3469
2706	3918
2707	2785
2707	3306
2707	3645
2707	4497
2707	4666
2707	5213
2707	5883
2707	6005
2707	6621
2707	6984
2708	2709
2708	3057
2708	3404
2708	4504
2708	4506
2708	4507
2708	4508
2708	4511
2708	4532
2708	4533
2708	4534
2708	4535
2708	4536
2708	4537
2708	4538
2708	4539
2709	3057
2709	3101
2709	3190
2709	3348
2709	4500
2709	4505
2709	4507
2709	4509
2709	4510
2709	5489
2709	6057
2709	6084
2709	6344
2709	6709
2709	6883
2709	6906
2709	6913
2709	7784
2709	8371
2710	3106
2710	3374
2710	3462
2710	3574
2710	4604
2710	4929
2710	8022
2711	2712
2711	7812
2713	4973
2713	4974
2713	4975
2714	5464
2715	3742
2715	6360
2715	6906
2716	2922
2716	2927
2716	2933
2716	2951
2716	2978
2716	3084
2716	3329
2716	3474
2716	3687
2716	3763
2716	4167
2716	4711
2716	5183
2716	5290
2716	5445
2716	7207
2716	7324
2716	7355
2716	7989
2716	8132
2716	8133
2716	8134
2716	8135
2716	8136
2716	8137
2716	8138
2716	8139
2716	8140
2716	8141
2716	8142
2718	2719
2718	3814
2718	4711
2718	5093
2718	5473
2718	5690
2718	8085
2721	2817
2721	2818
2721	2819
2725	3275
2725	3282
2725	3283
2725	3284
2726	2750
2726	2854
2726	2993
2726	3136
2726	3297
2727	3383
2728	2764
2728	2768
2728	2772
2728	3629
2729	3806
2729	4432
2730	2889
2730	3227
2730	3247
2730	3508
2730	3558
2730	3970
2730	4078
2730	4542
2730	4720
2730	4721
2730	4722
2730	4723
2731	2867
2732	2735
2732	4724
2732	4725
2733	4726
2734	2867
2734	3120
2734	3132
2734	3135
2734	3484
2734	3486
2734	4653
2734	4727
2734	4728
2736	3583
2738	4771
2738	4772
2739	2901
2742	4170
2742	4780
2742	4781
2742	4782
2743	4783
2745	4784
2746	3220
2747	3626
2747	4162
2747	4785
2747	4786
2747	4787
2747	4788
2747	4789
2747	4790
2748	2892
2748	3272
2748	4645
2748	4718
2748	4791
2750	4668
2750	4726
2750	4792
2750	4793
2753	3110
2753	4794
2756	4799
2756	4800
2759	6067
2759	7118
2759	7486
2759	7647
2759	8237
2759	8238
2761	3304
2761	3305
2761	3306
2761	3307
2762	3192
2762	3555
2763	3070
2763	4138
2763	4139
2763	4140
2764	3732
2764	3733
2764	5139
2764	5169
2765	5002
2766	3827
2767	3292
2767	3293
2767	3294
2768	3375
2768	3703
2768	3732
2768	4150
2768	4781
2768	7267
2769	2852
2769	2872
2769	2944
2769	3192
2769	5267
2769	5654
2769	5655
2769	7268
2770	3803
2770	3987
2770	4165
2770	4166
2770	7206
2770	7269
2771	3348
2771	4257
2771	5132
2771	6595
2771	7270
2772	4771
2772	4921
2776	3162
2777	2867
2777	3493
2777	3895
2777	3942
2777	5034
2777	5035
2777	5036
2777	5037
2777	5038
2777	5039
2778	3380
2778	4233
2778	5255
2779	4383
2780	2871
2780	3642
2780	4233
2780	5998
2780	5999
2780	6000
2780	6001
2780	6002
2780	6003
2780	6004
2781	5164
2784	2947
2784	3126
2784	3132
2784	3140
2784	3141
2784	3379
2784	3484
2784	3485
2784	3489
2784	3744
2784	4223
2784	4243
2784	4313
2784	4342
2784	4376
2784	4377
2784	4687
2784	4696
2784	5301
2784	5746
2784	6495
2784	6983
2785	3192
2785	3397
2785	4666
2785	5401
2785	5883
2785	6046
2785	6060
2785	6361
2785	6501
2785	6503
2785	6621
2785	6984
2786	2793
2786	2867
2786	3240
2786	3484
2786	3488
2786	4555
2786	4653
2786	4727
2786	4985
2786	5183
2786	5622
2786	5964
2787	3162
2788	3373
2790	5404
2790	7247
2791	2792
2791	5445
2791	6499
2791	7295
2792	4003
2793	3621
2793	4842
2795	3543
2795	5324
2796	3068
2796	4414
2797	5099
2797	7296
2798	4207
2799	7299
2804	2843
2804	2952
2804	3009
2804	3160
2804	3448
2804	3659
2804	3687
2804	3782
2804	5445
2804	6320
2804	7235
2804	7354
2804	7355
2806	2867
2806	4241
2806	7449
2806	7450
2806	7451
2806	7452
2806	7453
2807	8332
2808	3553
2808	3554
2808	3627
2809	6378
2810	4212
2810	8702
2810	8703
2811	5344
2813	3027
2813	3791
2813	5565
2813	5988
2813	5989
2813	5990
2813	5991
2813	5992
2813	5993
2813	5994
2813	5995
2813	5996
2813	5997
2814	3105
2814	3774
2814	4077
2814	4442
2814	5343
2814	7092
2814	7093
2814	7094
2815	3276
2815	7440
2817	4320
2817	4490
2817	4497
2817	4498
2818	3120
2818	4148
2818	4370
2818	4462
2818	4471
2818	4472
2818	4694
2818	4701
2818	5456
2818	5457
2818	5543
2818	5544
2818	5545
2818	5546
2818	5547
2818	5548
2818	5549
2818	5550
2818	5551
2819	3559
2819	3774
2819	4115
2819	4542
2819	5228
2819	8103
2820	4231
2821	4687
2822	3205
2822	3206
2822	3230
2822	3285
2822	3286
2822	3385
2822	3431
2823	4399
2823	4680
2823	7856
2823	7857
2823	7858
2825	3062
2825	8885
2826	4081
2829	2841
2829	2845
2829	2846
2829	2847
2829	2901
2829	2902
2829	2903
2831	2911
2831	2912
2832	3732
2832	3918
2832	5023
2833	3918
2833	7403
2835	2896
2835	4523
2835	6400
2835	6401
2836	2889
2836	3024
2836	3259
2836	4003
2836	4032
2836	5808
2836	6400
2836	6403
2836	6853
2837	4043
2837	4044
2837	4045
2837	4046
2837	4128
2841	5837
2842	2919
2842	3124
2842	3244
2842	3365
2842	3526
2842	3588
2842	3680
2842	3729
2842	3972
2842	4318
2842	4430
2842	4679
2842	4782
2842	4795
2842	4814
2842	4880
2842	4891
2842	4892
2842	4893
2842	4894
2842	4895
2842	4896
2842	4897
2842	4898
2842	5023
2842	5446
2842	5447
2842	5803
2842	5877
2842	5878
2842	5879
2842	5880
2842	5881
2842	5882
2842	5883
2842	5884
2842	5885
2842	5886
2842	5887
2842	5888
2842	5889
2843	2845
2843	3384
2843	4147
2843	4234
2843	4356
2844	6605
2845	2952
2845	3510
2845	3571
2845	4234
2847	4512
2848	5916
2851	4301
2851	6667
2851	6925
2852	2853
2852	3240
2852	3258
2852	4730
2852	5263
2852	5264
2852	5265
2852	5266
2853	3256
2853	5270
2856	3896
2857	2875
2859	3012
2859	3306
2859	3388
2859	3687
2859	4109
2859	4301
2859	4661
2859	4889
2859	5129
2859	5504
2859	5557
2859	6248
2859	6266
2859	6267
2859	6268
2859	6269
2859	6270
2859	6271
2860	3009
2860	3283
2860	3421
2860	3455
2860	3456
2860	3466
2860	4017
2860	4165
2860	4410
2860	5095
2860	5166
2860	5451
2860	6011
2860	6267
2860	6469
2860	6560
2860	6861
2860	7399
2861	4905
2861	7121
2862	3071
2862	3076
2862	3374
2862	6215
2862	7673
2862	8761
2862	9143
2864	3300
2866	2867
2866	2872
2866	3133
2866	3240
2866	3364
2866	3488
2866	3495
2866	3656
2866	3897
2866	4223
2866	4305
2866	4321
2866	4727
2866	5622
2866	5623
2866	5624
2866	5625
2866	5626
2867	3120
2867	3135
2867	3241
2867	3249
2867	3483
2867	3488
2867	3493
2867	3495
2867	3496
2867	3895
2867	4151
2867	4294
2867	4336
2867	4653
2867	4936
2867	5183
2867	5205
2867	5207
2867	5213
2867	5317
2867	5729
2867	5730
2867	5731
2867	5732
2868	3778
2868	5278
2868	5734
2868	5735
2869	2901
2870	2888
2870	3316
2870	3450
2870	3574
2870	5518
2870	6717
2870	6718
2871	4696
2871	4911
2871	5169
2871	6945
2872	3379
2872	4082
2872	5263
2873	3134
2873	6452
2873	6843
2873	7694
2874	6288
2875	3304
2875	4507
2875	8218
2875	8219
2876	4140
2879	5602
2879	6599
2879	6600
2880	3282
2880	7433
2880	7434
2880	9017
2880	9018
2881	4287
2887	3139
2887	3166
2887	3175
2887	3304
2887	3379
2887	3486
2887	3612
2887	3746
2887	3759
2887	4153
2887	4304
2887	4335
2887	4696
2887	4931
2887	5740
2887	5741
2887	5742
2887	5743
2887	5744
2888	3009
2888	3243
2888	3620
2888	3658
2888	3681
2888	3947
2888	4458
2888	4720
2888	4976
2888	5096
2888	5923
2888	7022
2889	3062
2889	4752
2889	4753
2889	7287
2890	4625
2891	3276
2892	3145
2892	3380
2892	7221
2892	8056
2893	3624
2893	3625
2893	4782
2893	5804
2893	6080
2893	6081
2893	7972
2895	3822
2896	3376
2896	4591
2896	4654
2896	6520
2898	3772
2898	8612
2899	3009
2901	3137
2901	3743
2901	5858
2902	6707
2904	6708
2905	5363
2906	3282
2906	4509
2906	5314
2906	5363
2906	6169
2906	7740
2906	7741
2908	4588
2908	6864
2908	7005
2908	7006
2908	7007
2908	8520
2908	8521
2908	8522
2909	4849
2909	9048
2910	3694
2910	4783
2910	5129
2910	6610
2911	3124
2911	3363
2911	3722
2911	5803
2911	6254
2912	3947
2912	6306
2912	6750
2912	7519
2912	7520
2914	7238
2918	2941
2918	2942
2918	2943
2918	2944
2918	2945
2918	2946
2919	3365
2919	3729
2919	4415
2919	4427
2919	5126
2919	5886
2919	5887
2919	6000
2919	6574
2919	6739
2920	3988
2920	5079
2920	6116
2920	8084
2921	3707
2922	5983
2922	5984
2922	6009
2923	3453
2923	3686
2925	4643
2926	3817
2926	7048
2926	7049
2927	8083
2928	6807
2928	7309
2929	2959
2929	8407
2930	2959
2931	2959
2934	2959
2938	2959
2941	2942
2941	3588
2941	5086
2941	5363
2941	6831
2942	2944
2942	2945
2942	2946
2943	3065
2943	4633
2943	7310
2943	7311
2944	3925
2944	5822
2944	5943
2944	7312
2947	3118
2947	3127
2947	3133
2947	3162
2947	3163
2947	3164
2947	3165
2947	3166
2947	3167
2947	3168
2947	3169
2947	3170
2947	3171
2947	3172
2947	3173
2947	3174
2949	3621
2949	4117
2949	4119
2949	4120
2949	4121
2949	4123
2950	3565
2950	3581
2950	3732
2950	5675
2950	6952
2951	2959
2951	3069
2951	3329
2951	3659
2952	3448
2952	3951
2952	5110
2953	7381
2953	7721
2953	8081
2954	6421
2955	4532
2955	4973
2955	5141
2955	5708
2955	6016
2955	7134
2955	7918
2955	8145
2956	4736
2956	7454
2958	4205
2959	2962
2959	2966
2959	2968
2959	2972
2959	3052
2959	3065
2959	3066
2959	3067
2959	3069
2959	3074
2959	3090
2959	3318
2959	4143
2959	4167
2959	4776
2959	5136
2959	5448
2959	5638
2959	5669
2959	5721
2959	5999
2959	6302
2959	6303
2959	8136
2959	8727
2959	8728
2959	8729
2959	8730
2959	8731
2959	8732
2959	8733
2962	4172
2962	5211
2962	5276
2962	5481
2962	6425
2962	6575
2962	8291
2962	8772
2963	4915
2963	7259
2964	3659
2964	4033
2964	5086
2964	5531
2964	6527
2964	7207
2967	4658
2969	3006
2979	4801
2979	7752
2979	9262
2980	4801
2981	3436
2981	3508
2981	3564
2981	3565
2981	6206
2981	6251
2981	6252
2981	6253
2982	4453
2982	5299
2983	6299
2983	8621
2984	4494
2988	3019
2988	5485
2988	5509
2988	8043
2989	3033
2989	3396
2989	3653
2989	4804
2989	5700
2989	5846
2989	5847
2989	6012
2989	6283
2989	6343
2989	6700
2989	7180
2989	7181
2989	7182
2989	7185
2989	7389
2989	7637
2989	8380
2989	8381
2989	8382
2993	3774
2993	4877
2994	2996
3000	3307
3000	5132
3000	6594
3000	6603
3000	6745
3000	7372
3000	7373
3001	3520
3001	7372
3002	6530
3003	4967
3003	6530
3004	5708
3004	8638
3004	8650
3007	5053
3007	6935
3007	7137
3007	7138
3008	7505
3009	3240
3009	4122
3009	4410
3010	4521
3010	5605
3010	6294
3010	6295
3010	6554
3010	6602
3010	6603
3010	6604
3011	3432
3011	5130
3011	6620
3012	3439
3012	5224
3012	5284
3012	6225
3012	7535
3013	3432
3013	5900
3013	6294
3013	6295
3013	6296
3015	3456
3015	3468
3015	6659
3016	3029
3016	3223
3016	4826
3016	4827
3016	4828
3016	4829
3016	4830
3016	4831
3016	4832
3016	4833
3016	4834
3017	3568
3017	4636
3018	3130
3018	3972
3018	4116
3018	4287
3018	4540
3018	5321
3018	5322
3018	6664
3019	3467
3019	4970
3019	5892
3019	6789
3019	6790
3019	6793
3019	6799
3019	6815
3019	6816
3019	6817
3020	6823
3021	4331
3022	4155
3022	6140
3022	6142
3022	7154
3023	4155
3023	6142
3024	3890
3024	3977
3024	4071
3024	4072
3024	4076
3024	4159
3024	6837
3027	3454
3027	4730
3027	5475
3027	5616
3027	5672
3027	6011
3027	7640
3028	5708
3029	3590
3029	4903
3029	4904
3029	6107
3030	3033
3030	4155
3030	5479
3030	6041
3030	6139
3030	6266
3030	7324
3030	8009
3031	7080
3032	3043
3033	7324
3036	5976
3036	6745
3036	7023
3038	3218
3038	8470
3038	8512
3041	6629
3041	6702
3042	6607
3042	7772
3043	4459
3044	5095
3044	6039
3046	3050
3047	3215
3047	3398
3047	3456
3047	5676
3047	6994
3048	3398
3048	5130
3048	5705
3048	5711
3048	5712
3048	6643
3048	6819
3048	6821
3049	3399
3049	5141
3049	5478
3049	5511
3049	5676
3049	5725
3049	5983
3049	5984
3049	6638
3049	7027
3049	7390
3049	7445
3049	7446
3052	3987
3052	8133
3053	5078
3053	5510
3053	6725
3053	6930
3053	7653
3054	8513
3057	3190
3057	3348
3057	4500
3057	4505
3057	4509
3057	4510
3057	6193
3057	6883
3060	3104
3060	3508
3060	3534
3060	3565
3060	4195
3060	5153
3060	6252
3061	3510
3062	3806
3062	4417
3062	6183
3062	6669
3062	6827
3062	6828
3062	6829
3062	6830
3063	4654
3063	7514
3064	5637
3064	5639
3066	7899
3066	7900
3066	7901
3066	8091
3067	3606
3067	4058
3067	6264
3069	7959
3069	8317
3070	3559
3072	5599
3073	5616
3073	6933
3074	4149
3075	5635
3075	5636
3075	5637
3075	6273
3075	8778
3076	3802
3076	4165
3076	8789
3077	3806
3079	8059
3080	7224
3081	7135
3082	9092
3083	3940
3083	5650
3092	3477
3101	7270
3102	3108
3102	3109
3103	3129
3103	3145
3103	3177
3103	3240
3103	3555
3103	3612
3103	3621
3103	3790
3103	4405
3103	4943
3103	4944
3103	4945
3103	4946
3103	4947
3103	4948
3103	4949
3103	4950
3103	4951
3104	3379
3104	3774
3105	3639
3105	4077
3105	4093
3105	4451
3106	4485
3106	4913
3106	5895
3106	6287
3106	6295
3106	6835
3107	4137
3107	4298
3107	5295
3107	7819
3107	8777
3108	5281
3108	5724
3108	6506
3108	7708
3108	8153
3108	8334
3108	9184
3108	9185
3108	9186
3108	9187
3109	8630
3110	3566
3110	5249
3110	6506
3112	3113
3113	3114
3113	3115
3113	3116
3118	3119
3118	3120
3118	3121
3118	3122
3118	3123
3119	3175
3119	3176
3120	3133
3120	3135
3120	3163
3120	3164
3120	3167
3120	3169
3120	3171
3120	3177
3120	3178
3120	3179
3120	3180
3121	3181
3122	3183
3122	3184
3124	3626
3124	3800
3124	4162
3124	4163
3124	4164
3125	4034
3125	4035
3125	4036
3126	3162
3126	3163
3126	3166
3126	3170
3126	3171
3126	3172
3126	3173
3126	3174
3126	3461
3126	4267
3126	4268
3126	4269
3127	3139
3127	3162
3127	3163
3127	3166
3127	3168
3127	3170
3127	3171
3127	3172
3127	3173
3127	3174
3127	4267
3127	4271
3128	3486
3128	3736
3128	4148
3128	4277
3128	4278
3128	4279
3128	4280
3128	4281
3128	4282
3128	4283
3128	4284
3128	4285
3129	3770
3129	3773
3129	4286
3129	4287
3129	4288
3129	4289
3129	4290
3130	4287
3130	4324
3130	4325
3130	4326
3130	4327
3130	4328
3130	4329
3130	4330
3130	4331
3131	3709
3132	3139
3132	3162
3132	3166
3132	3173
3132	3304
3132	3746
3132	3790
3132	4332
3132	4333
3133	3135
3133	3171
3133	3484
3133	3742
3133	4314
3133	4334
3133	4335
3133	4336
3133	4337
3133	4338
3133	4339
3133	4340
3134	3374
3134	3376
3135	3171
3135	3746
3135	4291
3135	4299
3135	4313
3135	4335
3135	4337
3135	4344
3135	4351
3135	4352
3135	4353
3137	3172
3137	3173
3137	3177
3137	3179
3137	3259
3137	3379
3137	3571
3137	4130
3137	4148
3137	4281
3137	4365
3137	4366
3137	4367
3137	4368
3137	4369
3137	4370
3137	4371
3137	4372
3137	4373
3137	4374
3138	3173
3138	3259
3138	3752
3138	4130
3138	4304
3138	4305
3138	4372
3138	4375
3139	3484
3139	4268
3139	4342
3139	4376
3139	4377
3139	4378
3140	3162
3140	3170
3140	3171
3140	3172
3140	3173
3140	3174
3140	4379
3141	3162
3141	3170
3141	3171
3141	3172
3141	3173
3141	3174
3142	4380
3142	4381
3142	4382
3143	3162
3143	4311
3143	4400
3143	4401
3144	3679
3144	4403
3144	4404
3145	4157
3145	4405
3146	4405
3150	4289
3151	3287
3151	4292
3152	4255
3152	4311
3153	4917
3156	4555
3156	4588
3156	6018
3156	7015
3157	3615
3157	3697
3157	4356
3157	5067
3162	3177
3162	3379
3162	3484
3162	3489
3162	3719
3162	4243
3162	4244
3162	4245
3162	4246
3162	4247
3162	4248
3162	4249
3162	4250
3162	4251
3162	4252
3162	4253
3162	4254
3162	4255
3163	4243
3163	4270
3166	3484
3166	4243
3166	4286
3167	4293
3167	4324
3167	4470
3167	4696
3167	4919
3167	4920
3169	3379
3169	3484
3169	3654
3169	4223
3169	4334
3169	4688
3169	5002
3169	5769
3169	5770
3170	3484
3170	4243
3170	5607
3170	5740
3170	6764
3171	3483
3171	4243
3171	4313
3171	4334
3171	4335
3171	4341
3171	4342
3171	4555
3171	4559
3171	5002
3172	4243
3173	3484
3173	4243
3173	4316
3173	4696
3173	5610
3173	6841
3173	6962
3173	6982
3174	4243
3174	4369
3175	4336
3176	3282
3176	6689
3177	3179
3177	3287
3177	3364
3177	3379
3177	3434
3177	3489
3177	3735
3177	3736
3177	3737
3177	3738
3177	3739
3177	3740
3177	3741
3177	3742
3177	3743
3177	3744
3177	3745
3177	3746
3177	3747
3177	3748
3177	3749
3177	3750
3177	3751
3177	3752
3177	3753
3177	3754
3177	3755
3177	3756
3177	3757
3177	3758
3177	3759
3177	3760
3177	3761
3177	3762
3177	3763
3179	3674
3179	4365
3179	4692
3179	4934
3179	5002
3179	5003
3179	5004
3179	5005
3179	5006
3179	5007
3179	5008
3180	3484
3184	8647
3186	4113
3186	4176
3188	6275
3189	4328
3189	6275
3189	7657
3190	3348
3190	4500
3190	4505
3190	4507
3190	4509
3190	4510
3190	6883
3192	3253
3192	3254
3192	3255
3195	3308
3196	3309
3199	3201
3199	3248
3199	3355
3199	3356
3199	3357
3199	3358
3199	3359
3199	3360
3200	3248
3200	3355
3200	3357
3200	3359
3201	3248
3201	3355
3201	3356
3201	3357
3201	3358
3201	3359
3201	3361
3201	3362
3202	3372
3202	3373
3202	3374
3202	3375
3202	3376
3202	3377
3202	3378
3203	3377
3204	3379
3206	3230
3206	3273
3206	3380
3206	3384
3206	3385
3209	3390
3209	3391
3210	3429
3211	3430
3214	3276
3216	3230
3216	3285
3216	3286
3216	3431
3218	3375
3218	3434
3218	3435
3220	4835
3221	3365
3221	3588
3221	3729
3221	4033
3221	4274
3221	4430
3221	4666
3221	4784
3221	4880
3221	4891
3221	4892
3221	4893
3221	4894
3221	4895
3221	4896
3221	4897
3221	4898
3221	4899
3221	4900
3222	4726
3222	4792
3222	4901
3222	4902
3223	3590
3223	3808
3223	4147
3223	4415
3223	4903
3223	4904
3223	4905
3223	4906
3224	4907
3224	4908
3224	4909
3224	4910
3224	4911
3225	3430
3225	4186
3225	4916
3230	3285
3230	3286
3237	4169
3237	5224
3238	3243
3238	3676
3239	3483
3239	4130
3239	4310
3239	4695
3239	4699
3240	3248
3240	3555
3240	3621
3240	4842
3240	5270
3240	5271
3241	3242
3241	3245
3241	5023
3241	5331
3241	5332
3242	3244
3242	3248
3242	3252
3242	3289
3242	3546
3242	3630
3242	3678
3242	4491
3242	4499
3242	4683
3242	4737
3242	4824
3242	5107
3242	5117
3242	5268
3242	5437
3242	5580
3242	5581
3242	5582
3242	5583
3242	5584
3242	5585
3242	5586
3242	5587
3242	5588
3242	5589
3243	3244
3243	3248
3243	3252
3243	3630
3243	4176
3243	4183
3243	4491
3243	5107
3243	5585
3243	5586
3243	5587
3243	5588
3243	5594
3243	5628
3243	5907
3243	5908
3244	3603
3244	4069
3244	5268
3244	5407
3244	5481
3244	5815
3244	6263
3244	6264
3245	3248
3246	3248
3246	4471
3246	7001
3247	4720
3247	4722
3247	6426
3247	7025
3248	5437
3249	3672
3249	4108
3249	4148
3249	4281
3249	4703
3249	5870
3253	5349
3255	6865
3256	3690
3257	3532
3257	3662
3257	3664
3257	3786
3257	3903
3257	3907
3257	3938
3257	3939
3257	3940
3257	3941
3258	5262
3259	4316
3259	5808
3259	6400
3259	6417
3260	4530
3260	6524
3261	3987
3261	4166
3261	4836
3261	4914
3261	7888
3261	7889
3262	7031
3262	7362
3262	7891
3263	3532
3263	3941
3263	4427
3263	4440
3264	3265
3264	3751
3265	4102
3265	7919
3266	3454
3266	3456
3266	3799
3266	3899
3266	3926
3266	3961
3266	4002
3266	4358
3266	4732
3266	6150
3266	6218
3266	7617
3266	7829
3269	4693
3271	5306
3271	5456
3271	5543
3273	7841
3274	4417
3274	6913
3274	7418
3275	5594
3275	8653
3276	3591
3276	3656
3276	4587
3276	7440
3278	3669
3278	8333
3279	4508
3280	5825
3282	3314
3282	3389
3282	3442
3282	3509
3282	3512
3282	3945
3282	3957
3282	3958
3282	3960
3282	3962
3282	3965
3282	3968
3282	3973
3282	3974
3282	3977
3282	3983
3282	3993
3282	3996
3282	3999
3282	4012
3282	4013
3282	4015
3282	4392
3282	4418
3282	4759
3282	4992
3282	5078
3282	5085
3282	5088
3282	5104
3282	5230
3282	5365
3282	5367
3282	5369
3282	5371
3282	5373
3282	5378
3282	5379
3282	5382
3282	5383
3282	5498
3282	6105
3282	6175
3282	6176
3282	6177
3282	6178
3282	6210
3282	6213
3282	6214
3282	6215
3282	6216
3282	6217
3282	6218
3282	6219
3282	6220
3282	6221
3282	6222
3282	6223
3282	6224
3282	6225
3282	6226
3282	6227
3282	6228
3282	6229
3282	6230
3282	6231
3282	6232
3282	6233
3282	6234
3282	6235
3282	6236
3282	6237
3282	6238
3282	6239
3282	6240
3282	6241
3283	3430
3283	3970
3283	4192
3283	5031
3283	5367
3283	5370
3283	5371
3283	5498
3283	5501
3283	5744
3283	5974
3283	6088
3283	6171
3283	6173
3283	6298
3283	6532
3283	6960
3283	7593
3283	7949
3283	7950
3283	7951
3283	7952
3283	7953
3283	7954
3283	7955
3283	7956
3283	7957
3283	7958
3283	7959
3283	7960
3283	7961
3284	3584
3284	4177
3284	4393
3284	5581
3284	5751
3284	5936
3285	3286
3286	3385
3286	3431
3286	9140
3287	3571
3287	3742
3287	3744
3287	4281
3287	4369
3287	4480
3289	5583
3290	3918
3290	8116
3291	4149
3291	4445
3291	4448
3291	4449
3291	4450
3291	4451
3291	4452
3291	4453
3291	4454
3291	4455
3292	3293
3292	3294
3292	3525
3292	4484
3292	4485
3293	3294
3295	4577
3295	4578
3295	5945
3296	8859
3296	8860
3296	8862
3297	6786
3298	3790
3299	3405
3299	3406
3300	4218
3300	9228
3301	7680
3301	8476
3301	8495
3303	4149
3303	4215
3303	5075
3303	6282
3303	7167
3303	7170
3303	7179
3303	8329
3304	4338
3304	4369
3304	4727
3305	4787
3305	5852
3305	5853
3306	3393
3306	3397
3306	4508
3306	4666
3306	5363
3306	5401
3306	5883
3306	6046
3306	6204
3306	6503
3306	6504
3306	6621
3306	6984
3306	7371
3309	3526
3309	3699
3309	4426
3309	4530
3309	4572
3309	4891
3309	4898
3309	7286
3309	7407
3309	7499
3309	7832
3309	7833
3311	3686
3311	3687
3311	3953
3311	3954
3311	3956
3311	4331
3311	4433
3311	4435
3311	4436
3311	4437
3312	4286
3312	4583
3314	5127
3314	5259
3316	6730
3317	3446
3317	5616
3318	4607
3318	5942
3318	6372
3319	6400
3320	5798
3321	6589
3321	8572
3322	5447
3322	7230
3322	8359
3322	8638
3322	8640
3323	3835
3323	5846
3323	6702
3324	7610
3324	8717
3325	6400
3327	7818
3328	7836
3330	3795
3330	4033
3330	4441
3332	4500
3333	5762
3335	8921
3340	4712
3342	3376
3348	3557
3348	3591
3348	4233
3348	4500
3348	4505
3348	4507
3348	4509
3348	4510
3348	6883
3348	7334
3348	7335
3348	7336
3348	7337
3349	4214
3349	5531
3349	7772
3349	7865
3349	7866
3349	7867
3349	7868
3349	7869
3349	7870
3350	5823
3350	6370
3351	7021
3353	8653
3355	4657
3355	5316
3355	5366
3355	5526
3355	6016
3355	6732
3355	6970
3355	6971
3361	4139
3363	3386
3363	3564
3363	3724
3363	5107
3363	5290
3363	5633
3363	5634
3363	5635
3363	5636
3363	5637
3363	5638
3363	5639
3363	5640
3364	3376
3364	4148
3364	4281
3364	4369
3364	4654
3364	6678
3365	3534
3365	3729
3365	3919
3365	4088
3365	4893
3365	5127
3365	5654
3365	6739
3366	4658
3368	3678
3368	3679
3368	4033
3368	5598
3369	3591
3369	4853
3369	5341
3369	7859
3372	3749
3372	4925
3372	6990
3373	3524
3373	4881
3373	7069
3374	3774
3374	4167
3374	4620
3374	4732
3374	4850
3374	4858
3374	4867
3374	4881
3374	4883
3374	4901
3374	5741
3374	5876
3374	6041
3374	6188
3374	6856
3374	6891
3374	6912
3374	7623
3374	7662
3374	7664
3374	7764
3374	7765
3374	7766
3374	7767
3374	7768
3374	7769
3374	7770
3374	7771
3375	4977
3375	8109
3376	3528
3376	3531
3376	3631
3376	3655
3376	3720
3376	3743
3376	3781
3376	3902
3376	4133
3376	4846
3376	4857
3376	4861
3376	5013
3376	5249
3376	5510
3376	5780
3376	5876
3376	6512
3376	7447
3376	7448
3376	7479
3376	7771
3376	8527
3377	7027
3379	3484
3379	3746
3379	3747
3379	4117
3379	4148
3379	4223
3379	4255
3379	4281
3379	4291
3379	4338
3379	4369
3379	4462
3379	4687
3379	4688
3379	4938
3379	5559
3379	5560
3379	5561
3380	4170
3382	5016
3384	4145
3385	3775
3385	6394
3385	6622
3385	8914
3385	8915
3386	3387
3387	4976
3387	6042
3388	4907
3388	5430
3388	5675
3388	7512
3388	8481
3388	8482
3391	6421
3392	3399
3392	3400
3392	3409
3392	3415
3392	3416
3392	3420
3392	3822
3392	4840
3392	5016
3392	5865
3392	6544
3392	6545
3392	6546
3393	3407
3393	4640
3393	5401
3393	6544
3393	6609
3394	3635
3394	5711
3394	5712
3394	5718
3395	3422
3395	3454
3395	4005
3395	4068
3395	6630
3395	6969
3396	4804
3396	5846
3396	5847
3396	6704
3396	7180
3397	5430
3397	6361
3397	6362
3397	6501
3397	6502
3397	6504
3397	6621
3397	7253
3397	7254
3398	5711
3398	5712
3398	5718
3398	6819
3398	6821
3398	7369
3399	3409
3399	3415
3399	3416
3399	3420
3399	3822
3399	7258
3400	3409
3400	3416
3400	3420
3400	4116
3400	6544
3400	6883
3401	5075
3401	6380
3402	4165
3402	4166
3404	4181
3404	4500
3404	4504
3404	4506
3404	5356
3404	5895
3404	6913
3404	7417
3404	7652
3404	8225
3404	8489
3404	8490
3404	8491
3404	8492
3405	3406
3405	6362
3405	8133
3406	4718
3406	4816
3406	7331
3406	7778
3406	8500
3406	8501
3407	7736
3407	8517
3407	8518
3408	3524
3408	3625
3408	4387
3408	8463
3409	3415
3409	3416
3409	3420
3409	3822
3409	7081
3411	3791
3411	5606
3411	6594
3411	6745
3411	8463
3412	8643
3413	3793
3413	4166
3413	6327
3414	3799
3414	3802
3416	3420
3416	6544
3417	6489
3419	6299
3419	8217
3420	6544
3420	9159
3421	3960
3421	4729
3421	4819
3421	6005
3422	3430
3422	3960
3422	5074
3422	6214
3423	3960
3423	5479
3423	6731
3423	6747
3423	8010
3423	8011
3423	8012
3423	8013
3424	4112
3424	4992
3424	5386
3424	5388
3424	5957
3424	6105
3426	6202
3427	3873
3427	3940
3430	5978
3430	6748
3430	6749
3430	6750
3431	4669
3432	3444
3432	4443
3432	5695
3432	6193
3432	6294
3432	7692
3436	3480
3436	3508
3436	3565
3436	3631
3436	4110
3436	4392
3436	5654
3436	6205
3436	7221
3436	7474
3437	3453
3437	3454
3437	3455
3437	3456
3437	3457
3437	3458
3437	3459
3437	3460
3438	3453
3438	3461
3438	3462
3438	3463
3438	3464
3438	3465
3439	3454
3439	3456
3439	3466
3439	3467
3439	3468
3439	3469
3439	3470
3439	3471
3439	3472
3439	3473
3441	3474
3442	3456
3442	3468
3442	3479
3442	3480
3443	4276
3444	4443
3444	4444
3445	4499
3446	3905
3446	4428
3446	6671
3446	6831
3446	6832
3447	3913
3448	3620
3449	3951
3449	4289
3449	6780
3450	3905
3450	4428
3450	6325
3450	6671
3453	3917
3453	4140
3453	4347
3453	6875
3453	6876
3454	3456
3454	3653
3454	3926
3454	3927
3454	3945
3454	3959
3454	3961
3454	3980
3454	4002
3454	4019
3454	4203
3454	4905
3454	5380
3454	6150
3454	6519
3454	6738
3454	7593
3454	7646
3454	7647
3454	7648
3455	3957
3455	3970
3455	4709
3455	5957
3455	8190
3455	8191
3456	3480
3456	3899
3456	3926
3456	3945
3456	3961
3456	3970
3456	3980
3456	3992
3456	3993
3456	4002
3456	4003
3456	4004
3456	4358
3456	4709
3456	4713
3456	4732
3456	5380
3456	6810
3456	6914
3456	7283
3456	7617
3456	7646
3456	7714
3456	7829
3456	8151
3456	8393
3456	9133
3456	9134
3458	3469
3458	7143
3461	7031
3462	6083
3463	3493
3463	3974
3463	5365
3463	8119
3464	3570
3464	6776
3464	7287
3465	4741
3465	7020
3466	6132
3466	6172
3466	6244
3466	6287
3466	6288
3467	7026
3468	3899
3468	3961
3468	3979
3468	5848
3469	3870
3469	3961
3469	3969
3469	3974
3469	3980
3469	3999
3469	4006
3469	4009
3469	4010
3469	4019
3469	4381
3469	5088
3469	6385
3469	7282
3469	7283
3469	7284
3469	7285
3470	4641
3471	6181
3471	7646
3472	5060
3472	6237
3472	9175
3472	9176
3473	5492
3473	8194
3473	9252
3474	3835
3474	3945
3474	3989
3474	4795
3474	5230
3474	5380
3474	5385
3474	5793
3474	6179
3474	6306
3474	7550
3474	7593
3474	7594
3474	7595
3474	7596
3474	7597
3476	8372
3477	4141
3477	5672
3477	5698
3477	6685
3477	6747
3477	6760
3477	6762
3477	6898
3477	6942
3477	6946
3477	7582
3477	8984
3477	9132
3479	5098
3480	4258
3480	7143
3480	7678
3480	7679
3481	3493
3482	4486
3482	4487
3483	3493
3483	3637
3483	3667
3483	4246
3483	4313
3483	4329
3483	4592
3483	4593
3483	5301
3483	5302
3483	5303
3483	5304
3484	3746
3484	3790
3484	4223
3484	4291
3484	4335
3486	3489
3486	4255
3486	4278
3486	4341
3486	4386
3486	4557
3486	4558
3486	4559
3486	4592
3486	4594
3487	4319
3487	4368
3487	5035
3487	5036
3487	5314
3487	5315
3488	3489
3488	3744
3488	4369
3488	5317
3488	5318
3488	5319
3489	3737
3489	4246
3489	4255
3489	4311
3489	4559
3489	5207
3490	4462
3492	4661
3492	7225
3493	3495
3493	3496
3493	3497
3495	4471
3495	5263
3496	3895
3498	3624
3498	3625
3498	3626
3498	3627
3498	3628
3500	3890
3502	3745
3502	4702
3502	5552
3502	5553
3502	5554
3502	5555
3502	5556
3505	3620
3505	3918
3505	4976
3506	3518
3506	6249
3507	6250
3508	3728
3508	6079
3508	6205
3508	6257
3509	3740
3510	6432
3511	4316
3511	4476
3511	4477
3511	5106
3513	3764
3514	4284
3514	6510
3515	4387
3515	4624
3515	4633
3520	3537
3520	3547
3521	3663
3521	5847
3521	6537
3521	6538
3521	6539
3521	6540
3523	4607
3523	5796
3523	5942
3525	4390
3525	4740
3526	3588
3526	3626
3526	4891
3526	5633
3526	5803
3526	6280
3526	7235
3526	7236
3528	5004
3529	5004
3530	7475
3531	3890
3531	4469
3531	4476
3531	4477
3531	4478
3531	5008
3532	5014
3533	4582
3533	7103
3533	7498
3534	3565
3534	4392
3534	4683
3534	4892
3534	5264
3534	5404
3534	5594
3534	7157
3534	7415
3537	4176
3537	7910
3538	3542
3539	3675
3539	3890
3539	5008
3540	5007
3540	8249
3541	4654
3542	3647
3542	3930
3543	5408
3544	3918
3544	5023
3548	3995
3551	4661
3551	6746
3551	7223
3551	7224
3553	5575
3553	8627
3555	4693
3555	4842
3555	5782
3555	5783
3555	5784
3556	3706
3558	4078
3558	4981
3558	5573
3558	5574
3558	5575
3559	4670
3559	5811
3559	5812
3559	5813
3561	5006
3561	5832
3561	5860
3561	5861
3561	5862
3561	5863
3564	5149
3564	5803
3564	6206
3564	6254
3565	3631
3565	3728
3565	3732
3565	4737
3565	4876
3565	5149
3565	5264
3565	5593
3565	6205
3565	6339
3565	6340
3565	6341
3565	6342
3566	4840
3566	5799
3568	5423
3569	5750
3570	6776
3571	3756
3571	4340
3571	4588
3571	4936
3571	4938
3571	5006
3571	5608
3571	5623
3571	6780
3572	5944
3573	7010
3574	3818
3574	3971
3574	6169
3574	7216
3574	7314
3576	4580
3576	5815
3576	6664
3577	6489
3579	6673
3580	3966
3580	3970
3580	4709
3581	7727
3583	3619
3583	6255
3585	4369
3586	4885
3587	3921
3588	4430
3588	4530
3588	4892
3588	4893
3588	4894
3588	5654
3588	5803
3588	5979
3588	6630
3588	7157
3588	7159
3588	7286
3588	8307
3589	4637
3590	3807
3591	3764
3591	3770
3591	3818
3591	3881
3591	4063
3591	4069
3591	5169
3591	5804
3591	6169
3591	6264
3591	6955
3591	8352
3592	6251
3592	8392
3593	3925
3593	6043
3596	4295
3596	5041
3597	5262
3597	5407
3598	3918
3598	5059
3598	5609
3600	4392
3600	4737
3600	4876
3603	4430
3607	3836
3607	5575
3607	6947
3608	5080
3608	5183
3609	4779
3609	6005
3609	6589
3609	6590
3609	6591
3610	4890
3610	6864
3610	6865
3612	4321
3612	5225
3612	5559
3612	5741
3612	5742
3612	6985
3613	4701
3614	4470
3615	4504
3617	5057
3617	5252
3618	5056
3618	7410
3620	3782
3620	4170
3620	7413
3621	5271
3621	5304
3621	5447
3622	6215
3622	6780
3624	3972
3624	4208
3624	4210
3624	4886
3624	5022
3624	5629
3624	5803
3624	5804
3624	7039
3624	7040
3624	7041
3625	3972
3625	4209
3625	4633
3625	4907
3625	5076
3625	5629
3625	5804
3625	7039
3626	4171
3626	4530
3626	4891
3626	4898
3626	5649
3626	6944
3626	7042
3626	7119
3626	7120
3626	7499
3626	7923
3626	8376
3626	8377
3626	8378
3626	8379
3627	4607
3627	6078
3627	8745
3628	5629
3629	3630
3629	3631
3631	3728
3632	3637
3632	3666
3632	3667
3632	3668
3632	3669
3632	3670
3632	3671
3632	3672
3632	3673
3632	3674
3632	3675
3633	3730
3633	3733
3634	4878
3634	5179
3635	4338
3635	4532
3635	5185
3635	5186
3635	5187
3635	5188
3635	5189
3635	5190
3635	5191
3635	5192
3635	5193
3636	5210
3637	4273
3637	4486
3637	4628
3637	4841
3637	5927
3637	5929
3637	5930
3638	3657
3638	5057
3638	5252
3639	4077
3639	4089
3639	4090
3639	4096
3639	5967
3640	5328
3640	5810
3640	5980
3642	5168
3643	4760
3647	3795
3649	6009
3653	4804
3653	6011
3653	6012
3655	6845
3656	4985
3656	6954
3657	5122
3658	4715
3658	4892
3659	3687
3659	4113
3659	4214
3659	4412
3659	5318
3659	5531
3659	5533
3659	6398
3659	8665
3659	8666
3662	3664
3662	3907
3662	3939
3662	3940
3662	3941
3662	4438
3662	4439
3662	4440
3664	3907
3664	3939
3664	3941
3664	4438
3664	4439
3664	7211
3666	4148
3666	4223
3666	4281
3667	6848
3669	5929
3669	5930
3671	6848
3672	4628
3672	7442
3673	6848
3674	8440
3676	7032
3676	7033
3678	3721
3678	3902
3678	4387
3678	4391
3678	4624
3678	5779
3679	3708
3679	4387
3679	4624
3679	4651
3679	4674
3679	5780
3679	5781
3680	3918
3681	4403
3681	6143
3681	7278
3682	8061
3682	8062
3683	3738
3683	3749
3685	3918
3685	5673
3685	7843
3685	7844
3686	3687
3686	3913
3686	8461
3687	3782
3687	3814
3687	3835
3687	3914
3687	3947
3687	4122
3687	4606
3687	4907
3687	5023
3687	5284
3687	5675
3687	5953
3687	6016
3687	6306
3687	6750
3687	7078
3687	7594
3687	8461
3687	8944
3687	8945
3687	8946
3687	8947
3687	8948
3691	3965
3691	6867
3691	6868
3692	6611
3693	3965
3693	7476
3694	7501
3696	5872
3697	7497
3698	4599
3698	4654
3699	7499
3700	7500
3703	6071
3704	3924
3704	5519
3704	7914
3704	8833
3706	3717
3707	4623
3707	4624
3707	4625
3708	5151
3708	5152
3710	4843
3711	5004
3712	4633
3712	7214
3719	4368
3719	4486
3719	4596
3719	4841
3719	5927
3720	5106
3721	4463
3721	4554
3722	4682
3722	5594
3722	7494
3724	4295
3725	7504
3728	4110
3728	4718
3729	3734
3729	4169
3729	4873
3729	5125
3729	5126
3729	5127
3729	5128
3729	5129
3730	5634
3731	4069
3731	5465
3731	6264
3731	7212
3731	7213
3731	7214
3731	7215
3732	4110
3734	3918
3734	4873
3734	5023
3734	6945
3735	3764
3735	3765
3735	3766
3736	4251
3736	4286
3736	4311
3736	4400
3736	4575
3736	4577
3736	4578
3736	4585
3737	4286
3737	4433
3737	4589
3738	4369
3739	4688
3739	5771
3740	3786
3740	4287
3740	4657
3741	4148
3741	4281
3741	4287
3741	4368
3741	6667
3742	3749
3742	3757
3742	4287
3742	4331
3742	4368
3742	4369
3742	4575
3742	6668
3743	4148
3743	4281
3743	4369
3743	6668
3744	4246
3744	4249
3744	4341
3744	4557
3744	4558
3744	4559
3744	4563
3744	4592
3744	4593
3744	4594
3744	5569
3745	4468
3745	5349
3745	5572
3745	6833
3746	4337
3746	4588
3746	5559
3747	4338
3747	4696
3747	4925
3748	5543
3749	4280
3749	4281
3749	4338
3749	4371
3749	4932
3749	6667
3749	7055
3749	7056
3749	7057
3750	3751
3750	5567
3750	7304
3751	3752
3751	3757
3751	4255
3751	4283
3751	4302
3751	4575
3751	4927
3751	5350
3751	5393
3751	5567
3751	6736
3751	7306
3751	7307
3751	7308
3752	4489
3753	3754
3754	4455
3756	4116
3756	4328
3756	4331
3756	4576
3756	5308
3756	5619
3756	5620
3756	7728
3757	4369
3757	5349
3759	5559
3761	4251
3761	4369
3762	7927
3763	4371
3763	4372
3764	3767
3764	3768
3764	3769
3764	3770
3764	3771
3764	3772
3764	3773
3764	3774
3764	3775
3764	3776
3764	3777
3764	3778
3764	3779
3764	3780
3764	3781
3765	3812
3768	4286
3769	5455
3770	5455
3771	5455
3772	5458
3772	5459
3773	4069
3773	5465
3774	4523
3774	6388
3774	6389
3774	6390
3775	4301
3776	3777
3776	4462
3777	4702
3777	4996
3777	7303
3780	4381
3780	6085
3782	5445
3783	5841
3784	4736
3785	6415
3788	4087
3788	4208
3788	5817
3788	5819
3788	5821
3788	5828
3788	6011
3788	6248
3788	6637
3790	4319
3790	4324
3790	5191
3790	6977
3790	6978
3790	6979
3791	3922
3791	6594
3791	6745
3792	3803
3792	3838
3792	5440
3793	4816
3793	7378
3794	3843
3794	3922
3795	4033
3795	4213
3795	4441
3799	3831
3799	3838
3799	4167
3799	5520
3799	7826
3799	7827
3799	7828
3800	4080
3802	3832
3802	4165
3802	6626
3802	7898
3803	3807
3803	3922
3803	4031
3803	4165
3803	4167
3803	5999
3803	6626
3803	7904
3803	7905
3804	5089
3805	3922
3805	4333
3805	5443
3805	7207
3805	7996
3805	7997
3806	3959
3806	5923
3806	7330
3806	8000
3806	8001
3807	7904
3810	3816
3811	4042
3811	5871
3811	5872
3814	5445
3814	5675
3814	5677
3816	8474
3817	4139
3817	5803
3818	5124
3820	5410
3822	4085
3822	5711
3822	5712
3822	5718
3824	4214
3824	7371
3826	7499
3827	4656
3831	4165
3831	5522
3831	6039
3832	4137
3832	4165
3833	4363
3835	5529
3835	5683
3835	8525
3835	8868
3836	6600
3839	4033
3839	4213
3839	4441
3839	5126
3839	5632
3841	6816
3844	6071
3846	3922
3847	6891
3855	5518
3855	6660
3859	9073
3863	4646
3863	4648
3863	4983
3881	8628
3890	3891
3890	3892
3890	3893
3891	4461
3891	4463
3891	4465
3891	4466
3891	4467
3891	4468
3891	4469
3892	4969
3892	7477
3892	8554
3892	8555
3893	4469
3895	4560
3895	4653
3895	5205
3895	5207
3895	5629
3895	5630
3896	7090
3898	4074
3898	7842
3898	7845
3898	7846
3899	7349
3900	5189
3900	5855
3901	3921
3903	3910
3904	3942
3904	3943
3904	3944
3905	3949
3905	3950
3906	3936
3907	4427
3908	4428
3909	3949
3909	3950
3909	4299
3909	4429
3909	4430
3909	4431
3910	3917
3910	4427
3912	4432
3913	3953
3913	3954
3913	4331
3913	4432
3913	4433
3913	4434
3913	4435
3913	4436
3913	4437
3914	3952
3914	3953
3914	3954
3914	4331
3914	4435
3916	3917
3917	4427
3918	3957
3918	4432
3918	4494
3918	4712
3918	4873
3918	4918
3918	5058
3918	5059
3918	5060
3918	5061
3920	5319
3920	5741
3920	6154
3920	6550
3920	6650
3920	6891
3920	6958
3920	9236
3922	3987
3922	4165
3922	4166
3922	4167
3922	4532
3922	5141
3922	5523
3922	5695
3922	5999
3922	6015
3922	6327
3922	6504
3922	6557
3922	6620
3922	6621
3922	6622
3922	6623
3922	6624
3922	6625
3922	6626
3922	6627
3924	4633
3924	5190
3924	5924
3924	6534
3924	8681
3925	4087
3925	4529
3925	5124
3926	3934
3926	4730
3926	4732
3926	6345
3927	3934
3927	3940
3927	4605
3927	5848
3927	6741
3927	7026
3927	7518
3927	8073
3929	7039
3933	3934
3934	8493
3935	7641
3936	4207
3938	4312
3938	4550
3938	4941
3938	5611
3938	5912
3938	5914
3939	4315
3939	5611
3940	6264
3940	6938
3940	6941
3941	4427
3941	4438
3942	4653
3942	5036
3942	5037
3942	5038
3942	7720
3943	8576
3947	5977
3947	6116
3947	6359
3948	5294
3949	4429
3950	4429
3951	4534
3952	4534
3953	4436
3953	4534
3954	4534
3960	5095
3960	6118
3960	6380
3960	6896
3960	6991
3961	6345
3962	5095
3963	7220
3965	7150
3966	4142
3966	4664
3966	4730
3966	6213
3966	6332
3966	6447
3966	7396
3968	5053
3969	5230
3970	4636
3970	4906
3970	5534
3970	6084
3970	6166
3970	6267
3970	6550
3970	7239
3970	7347
3970	7398
3970	7399
3971	4708
3971	4711
3971	6877
3971	7993
3972	7972
3975	8145
3976	4918
3976	5512
3976	5672
3976	5673
3976	7540
3976	8183
3977	4159
3977	5951
3978	7852
3979	4196
3979	4906
3979	6084
3979	6359
3981	6492
3981	7646
3981	8183
3982	8127
3983	5166
3983	5653
3984	6793
3985	6793
3988	4509
3988	4583
3988	7143
3988	7729
3989	6449
3990	5628
3990	7963
3993	5653
4001	4730
4001	8284
4003	4004
4004	5808
4004	5809
4004	6392
4004	9141
4005	5837
4006	4780
4010	4712
4010	7866
4011	5653
4011	9172
4014	9182
4016	4729
4017	4434
4024	5653
4028	9202
4030	4161
4031	4165
4031	4166
4031	4167
4032	4060
4032	4169
4032	4170
4032	4171
4032	4172
4033	4207
4033	4208
4033	4209
4033	4210
4033	4211
4033	4212
4033	4213
4033	4214
4034	4036
4041	4117
4041	4119
4041	4123
4042	4061
4042	4414
4043	4045
4043	6407
4043	6408
4044	4046
4045	4852
4045	6407
4045	6409
4049	4455
4050	6659
4051	5518
4051	6660
4053	5916
4057	5363
4058	4805
4058	5089
4060	6723
4063	5933
4064	4066
4066	8899
4068	6448
4068	7349
4068	7399
4069	4491
4069	5437
4069	5465
4069	5581
4069	5584
4069	5585
4069	5586
4069	5587
4069	5589
4069	6100
4069	8623
4069	8624
4069	8625
4069	8626
4072	4076
4072	5693
4073	4076
4073	5098
4073	5694
4073	6724
4074	4075
4075	7846
4076	6778
4077	4093
4077	4096
4077	4234
4079	5737
4080	5273
4080	6143
4081	4098
4081	4415
4082	4083
4082	6744
4082	6745
4083	6286
4083	6744
4083	6746
4084	6746
4086	6156
4087	5939
4087	7088
4088	6745
4088	8042
4089	5843
4090	5843
4091	6264
4096	5843
4098	5314
4098	5504
4101	4525
4101	5836
4101	6075
4102	7614
4103	4525
4103	8239
4105	4840
4105	4934
4106	4368
4106	5213
4106	5324
4106	5882
4106	6687
4107	5010
4107	5206
4108	7851
4109	4111
4109	4999
4109	5938
4109	6326
4109	6440
4109	6566
4109	7853
4112	6560
4112	6774
4112	6775
4112	8130
4114	4502
4115	7495
4115	7858
4115	8395
4116	4299
4117	4121
4117	4127
4122	5448
4126	4730
4126	5655
4126	5656
4126	6193
4126	6578
4126	8695
4130	4148
4130	4369
4130	4371
4130	4471
4130	4639
4130	5218
4130	6673
4130	6674
4132	6143
4132	7132
4135	8322
4137	5196
4137	6562
4137	9104
4137	9167
4138	4209
4138	5703
4138	5704
4139	4208
4139	4788
4139	4886
4139	5022
4139	5519
4139	7040
4139	7047
4139	7048
4139	7049
4139	7050
4140	4886
4140	6875
4140	8387
4140	8388
4141	4763
4141	4765
4142	8076
4142	8077
4142	8354
4146	5118
4147	6016
4147	6726
4147	7634
4147	7664
4147	7771
4147	7773
4147	7774
4147	7775
4147	7776
4147	7777
4148	4283
4148	4311
4148	4365
4148	4841
4148	4995
4148	4996
4148	4997
4148	4998
4149	6638
4149	6639
4150	6373
4150	8111
4151	5415
4152	6669
4152	6670
4152	6671
4153	4160
4153	4529
4153	5098
4153	5951
4153	6085
4153	6988
4155	6118
4155	6139
4155	6219
4155	7324
4157	7324
4158	5719
4159	5888
4160	5951
4160	6085
4160	6988
4161	4656
4162	8422
4163	7843
4165	4608
4165	6361
4165	6767
4165	7206
4165	7207
4166	6361
4166	6767
4166	7206
4166	7426
4166	7427
4167	6361
4167	6626
4169	4658
4169	5323
4169	5575
4169	6786
4169	7430
4169	7431
4169	7432
4169	7433
4169	7434
4169	7435
4170	4290
4170	6068
4171	4327
4174	4649
4174	6527
4176	5203
4176	5953
4176	7912
4178	7279
4178	8525
4181	6714
4181	6816
4181	8283
4181	8688
4182	4267
4182	7823
4182	8004
4182	8068
4182	8822
4186	4190
4186	5806
4186	5807
4189	6386
4189	6387
4190	4191
4190	6846
4190	6847
4192	7187
4193	4606
4195	4779
4195	5820
4195	5849
4195	7790
4195	7791
4195	7792
4198	5522
4203	7612
4205	8872
4207	4213
4207	4441
4208	4784
4208	5022
4208	7036
4208	7037
4208	7038
4209	4347
4209	4784
4210	4709
4210	7039
4214	5531
4214	5533
4214	7337
4214	8537
4214	8743
4214	8744
4214	9065
4214	9066
4215	4720
4215	5075
4215	5426
4215	5731
4215	5769
4215	6426
4215	6831
4215	7162
4215	7163
4215	7164
4215	7165
4215	7166
4215	7167
4215	7168
4215	7169
4215	7170
4215	7171
4215	7172
4215	7173
4215	7174
4215	7175
4216	5225
4221	5232
4221	5252
4221	5254
4223	4244
4223	4246
4223	4248
4223	4249
4223	4250
4223	4251
4223	4286
4223	4305
4223	4309
4223	4341
4223	4497
4223	4555
4223	4556
4223	4557
4223	4558
4223	4559
4223	4560
4223	4561
4223	4562
4223	4563
4224	4509
4224	4512
4224	7832
4224	8208
4227	5481
4229	8801
4230	4287
4230	7703
4230	7704
4231	4232
4232	4236
4234	6624
4235	4257
4235	4808
4235	5422
4235	6595
4235	7367
4241	4242
4243	4267
4245	5927
4246	4247
4246	4341
4247	4559
4248	7017
4249	4304
4249	4305
4249	5821
4250	4305
4250	4308
4250	7018
4250	7019
4253	4311
4253	5620
4254	5927
4255	4281
4255	4375
4255	5928
4258	4730
4258	6578
4258	7617
4258	7624
4260	6466
4260	9012
4260	9013
4262	4263
4262	4264
4268	4313
4268	4342
4268	5607
4270	4272
4271	5513
4271	6917
4271	7486
4271	7706
4271	9221
4272	7715
4274	5958
4274	6613
4276	8080
4277	4286
4277	4311
4277	4489
4277	4565
4277	4566
4278	4365
4278	4463
4278	4467
4278	4554
4278	4999
4280	4311
4280	5345
4281	4283
4281	4311
4281	4342
4281	4400
4281	4471
4281	4489
4281	4841
4281	4995
4281	4996
4281	5182
4281	5346
4281	5347
4281	5348
4282	4372
4283	4369
4283	4927
4283	5349
4283	5350
4283	5351
4284	5355
4285	5356
4285	5357
4286	4287
4286	4291
4286	4312
4286	4481
4286	4540
4286	4541
4286	4542
4286	4543
4287	4325
4287	4326
4287	4327
4287	4341
4287	4400
4287	4551
4287	4552
4287	4553
4288	4292
4288	4301
4288	4310
4288	4407
4289	4292
4289	4310
4289	4486
4291	4584
4291	4586
4292	4433
4292	4691
4293	4698
4293	4927
4294	5033
4295	5041
4298	4324
4298	5460
4299	4588
4301	5562
4302	4303
4302	4369
4302	4927
4302	5349
4302	5563
4302	5564
4302	5565
4302	5566
4303	4369
4303	5393
4303	5567
4304	4305
4304	4557
4304	4559
4304	5568
4305	4333
4305	4341
4305	4557
4305	4560
4305	4561
4305	4563
4305	4841
4305	5569
4305	5570
4309	4376
4311	4621
4311	6667
4311	7058
4311	7059
4311	7060
4312	4315
4312	4319
4312	4483
4312	4544
4312	4545
4312	4546
4312	4547
4312	4548
4312	4549
4312	4550
4313	4342
4313	4343
4313	4520
4313	5607
4314	4338
4314	4489
4314	4575
4314	5608
4315	4550
4315	4941
4315	5610
4315	5611
4315	5612
4315	5613
4315	5614
4315	5615
4316	5545
4316	5616
4316	5617
4316	5618
4320	4328
4320	4576
4320	5323
4320	5619
4320	5620
4320	5621
4322	5631
4324	4368
4325	4367
4325	5393
4325	5738
4326	4368
4326	5738
4327	4367
4327	4368
4327	4697
4329	5310
4329	5929
4329	5930
4329	6683
4330	4373
4331	5703
4331	7113
4331	7114
4332	4687
4333	4341
4334	4688
4336	4497
4336	4687
4336	4702
4336	5213
4336	6989
4337	4351
4338	4369
4338	4575
4338	4932
4338	5608
4339	4351
4339	5002
4340	4841
4341	5304
4341	5560
4341	5568
4341	5928
4341	6662
4341	6663
4342	4351
4342	4497
4342	5355
4342	5552
4342	5607
4342	5745
4342	6248
4342	7011
4342	7012
4342	7013
4343	5607
4343	6020
4344	5193
4345	4491
4345	5011
4345	5416
4345	5417
4346	4720
4346	5366
4346	6426
4347	7070
4347	7074
4349	4633
4349	5129
4349	5249
4349	5276
4349	6083
4349	6656
4352	5134
4356	4711
4356	5817
4356	7418
4356	7921
4358	4732
4358	6347
4358	7026
4359	4784
4359	4957
4362	5840
4362	7198
4362	8114
4362	8788
4363	5763
4363	6018
4363	6605
4363	7015
4365	4366
4365	4990
4365	4991
4365	4992
4365	4993
4365	4994
4366	4692
4366	4934
4366	5009
4367	4400
4367	5358
4367	5359
4367	5360
4368	4400
4368	4552
4368	4553
4368	4555
4368	5004
4368	5359
4368	5361
4368	5362
4369	4371
4369	4481
4369	4575
4369	4639
4369	4927
4369	4932
4369	4995
4369	4997
4369	5349
4369	5393
4369	5394
4369	5395
4369	5396
4369	5397
4369	5398
4369	5399
4370	5543
4370	6996
4371	4575
4372	4575
4372	5396
4373	4575
4374	8508
4375	4489
4376	5234
4376	7024
4378	5301
4378	7885
4379	6083
4380	4967
4380	8355
4380	8356
4381	6953
4381	8669
4381	8670
4381	8671
4382	9251
4384	9177
4386	5658
4386	5659
4386	5660
4388	5340
4388	5918
4389	7009
4391	4463
4391	4554
4392	4737
4392	4824
4392	5264
4393	6911
4394	7460
4394	8363
4394	8364
4395	4415
4396	6526
4402	5051
4402	5052
4403	4880
4403	8407
4404	5089
4404	8481
4404	9022
4407	8523
4412	4558
4412	5199
4412	5363
4412	7030
4412	7982
4412	7983
4412	7984
4413	8095
4414	4551
4415	6743
4416	6041
4416	6793
4417	4851
4417	5539
4417	6269
4421	8005
4427	4440
4429	4914
4429	5561
4430	5882
4430	6739
4430	7157
4433	4692
4433	4693
4434	6267
4434	6450
4434	7071
4434	7967
4435	4551
4435	5703
4436	5400
4441	4907
4444	6564
4445	4446
4445	4447
4447	4456
4448	4453
4448	5160
4448	5161
4448	5162
4448	5163
4449	7123
4450	6740
4451	7093
4455	5874
4455	9217
4457	6177
4457	7544
4458	4715
4458	5579
4458	8301
4459	5710
4459	5714
4461	4462
4461	4463
4461	4464
4462	4470
4462	4471
4462	4472
4463	4473
4463	4474
4464	4475
4464	4476
4464	4477
4464	4478
4464	4479
4465	5590
4465	5592
4466	5590
4466	5596
4467	4473
4469	6533
4469	7035
4470	4928
4470	4929
4471	4700
4471	4727
4471	4738
4471	5608
4473	4554
4473	4655
4475	4476
4475	4478
4475	5305
4476	4917
4477	5522
4477	6016
4478	4917
4479	8993
4482	4488
4483	4496
4485	4526
4486	5349
4486	5397
4486	6848
4487	4596
4487	4628
4487	5930
4489	6014
4490	7444
4491	8622
4492	5122
4492	8637
4494	6952
4497	5053
4497	6647
4497	6648
4499	4516
4499	4517
4499	4518
4499	4519
4500	4501
4500	4502
4500	4503
4500	4504
4500	4505
4500	4506
4500	4507
4500	4508
4500	4509
4500	4510
4500	4511
4500	4512
4500	4513
4500	4514
4502	4565
4502	5924
4502	6074
4504	4507
4504	4510
4504	4808
4505	4509
4505	4510
4505	4511
4505	4512
4505	5531
4505	6883
4505	7654
4506	6816
4506	7543
4507	4508
4507	4510
4507	4808
4507	4963
4507	5990
4507	6182
4507	6701
4507	6883
4507	6913
4507	7319
4507	7877
4507	8185
4507	8391
4507	8569
4507	8570
4507	8571
4508	8597
4509	4510
4509	6883
4510	4511
4510	6883
4510	8939
4511	6883
4511	8955
4512	6883
4520	5607
4521	4808
4521	7398
4521	7798
4521	8331
4522	6155
4523	6778
4524	7680
4525	6421
4527	8049
4527	8050
4529	8385
4532	4816
4532	5053
4532	5356
4532	6295
4532	6330
4532	7658
4537	6193
4540	4554
4541	4564
4542	6423
4544	5912
4544	5915
4544	5916
4545	4550
4545	4941
4549	5323
4549	5621
4551	5829
4551	6665
4551	6666
4552	5738
4552	6400
4555	5307
4557	5186
4557	5927
4557	5929
4557	5930
4558	5139
4558	6562
4559	5304
4559	5928
4560	5928
4564	7100
4564	7101
4564	7102
4564	7103
4564	7104
4565	5150
4566	6400
4567	5421
4567	6258
4567	6259
4571	6816
4572	7407
4574	8580
4574	8915
4574	9225
4575	4578
4575	5349
4575	5397
4575	5608
4575	7345
4577	4578
4579	4991
4579	5832
4579	5861
4579	7479
4579	7480
4579	7483
4580	7307
4580	7470
4580	7864
4582	7108
4582	8664
4583	5283
4583	5953
4583	6116
4583	6193
4583	8084
4583	8750
4585	5107
4588	6864
4588	7005
4588	7006
4588	7007
4588	7008
4591	4628
4592	5186
4592	5927
4592	5928
4592	5929
4592	5930
4593	5927
4593	5929
4593	5930
4594	5929
4594	5930
4594	6044
4595	4601
4595	4662
4595	5476
4596	5930
4596	7730
4597	5135
4597	5512
4598	5930
4598	7654
4599	7730
4600	5930
4604	6318
4605	4771
4606	6357
4611	9111
4615	7866
4625	5290
4625	5636
4625	5637
4625	5639
4625	6558
4625	6884
4625	7633
4625	8399
4625	8545
4625	8546
4625	8547
4628	5870
4629	5340
4630	5114
4630	7212
4630	7213
4631	7493
4633	5820
4633	5971
4633	5992
4633	6090
4633	6752
4633	7495
4633	7496
4636	5632
4637	4851
4638	6367
4638	6809
4638	6820
4640	8424
4641	8633
4645	5469
4646	5125
4649	5478
4649	7928
4651	4654
4651	5106
4651	5114
4651	5290
4653	5038
4653	5039
4653	5205
4653	5280
4653	5281
4653	5282
4654	4682
4654	5117
4654	5779
4654	5899
4656	5169
4656	5860
4657	6206
4660	4700
4661	6005
4661	6773
4661	6774
4661	6775
4664	4709
4665	5671
4666	5883
4666	6361
4666	6504
4666	6984
4668	4726
4670	5671
4671	5724
4672	6777
4672	8250
4674	5151
4680	9007
4681	7422
4683	4986
4689	4690
4690	8798
4691	4873
4692	4991
4692	5012
4692	5158
4692	5159
4693	5223
4693	5435
4693	5785
4694	4695
4694	4696
4694	4697
4694	4698
4696	4921
4696	4922
4696	4923
4696	4924
4696	4925
4696	4926
4697	5455
4697	5456
4697	5457
4698	5544
4698	5545
4698	5549
4700	5299
4700	5300
4701	4738
4702	5690
4706	4707
4708	4759
4708	4761
4708	4762
4708	4763
4708	4765
4708	4768
4708	5099
4709	4960
4709	5489
4709	5534
4709	6267
4709	6549
4709	6560
4709	6861
4709	7397
4709	7398
4709	7399
4709	7400
4710	7830
4710	7831
4711	4762
4711	4765
4711	5224
4711	5865
4711	7994
4711	7995
4712	5897
4712	6540
4712	8039
4713	8186
4715	4720
4715	5096
4715	7022
4715	7023
4718	7244
4718	7245
4720	6437
4722	6437
4724	7992
4728	6011
4728	7014
4729	6175
4730	5498
4730	5653
4730	5654
4730	5655
4730	5656
4730	5657
4731	4856
4731	5118
4732	8774
4732	8775
4732	8776
4734	5319
4735	5118
4735	6067
4737	4824
4737	5264
4738	4744
4738	4997
4739	7020
4741	5169
4742	7020
4744	4997
4745	5986
4746	8687
4747	4750
4756	5374
4757	6849
4758	5071
4760	7696
4762	5949
4762	5950
4762	6877
4762	7326
4763	8434
4764	8535
4765	4766
4765	5100
4766	5070
4766	8784
4767	8790
4769	5105
4772	5983
4772	5984
4773	6835
4777	8898
4779	7239
4779	7782
4780	6395
4780	6396
4780	6397
4780	6398
4780	6399
4781	8110
4782	5803
4782	7158
4782	7159
4782	7160
4782	7161
4783	6083
4783	6186
4784	5021
4784	5022
4784	5023
4784	5024
4784	5025
4784	5026
4784	5027
4784	5028
4785	5266
4785	5270
4785	5271
4787	5271
4788	7211
4794	4997
4795	4796
4795	4880
4795	8406
4796	6827
4796	8406
4797	6938
4797	6940
4797	8406
4797	8718
4797	8903
4801	5029
4801	5602
4801	6636
4801	7360
4801	7393
4801	7743
4801	7744
4801	7745
4801	7746
4801	7747
4801	7748
4801	7749
4802	7755
4804	4816
4804	5522
4804	5846
4804	5847
4804	5984
4804	6012
4804	6283
4804	6343
4804	6704
4804	7180
4804	7181
4804	7182
4804	7183
4804	7184
4804	7185
4804	7186
4807	6083
4808	5031
4808	6108
4808	6182
4808	6709
4809	5838
4810	7218
4812	7999
4813	5916
4815	7293
4815	8576
4816	5016
4816	5565
4816	6280
4816	6425
4816	6685
4816	6925
4816	7323
4816	8892
4816	8893
4816	8894
4816	8895
4818	6968
4818	7065
4820	5319
4820	6083
4824	5264
4826	5301
4826	5808
4826	7803
4827	5808
4832	7972
4833	7324
4836	4966
4836	5522
4836	5523
4836	5524
4837	5528
4837	6290
4837	6714
4837	6816
4839	7334
4840	6039
4840	6541
4840	6542
4840	6543
4841	5023
4842	5271
4843	5859
4843	7051
4843	7052
4844	7598
4845	5276
4845	6156
4846	5276
4846	5780
4846	6083
4846	7447
4846	7448
4847	8090
4848	8192
4850	5227
4851	5633
4852	6407
4853	5971
4854	9014
4857	8454
4857	8630
4857	9144
4872	5736
4873	5023
4873	6945
4875	5924
4875	7630
4875	7631
4875	7632
4878	4999
4880	6913
4880	8407
4882	6000
4882	8134
4882	8866
4882	8867
4884	5842
4884	6542
4886	4957
4886	5992
4886	6080
4886	7037
4886	7110
4886	8137
4887	5924
4887	7026
4888	5122
4889	5430
4891	4977
4891	7157
4891	7159
4892	4893
4892	5125
4892	5883
4892	5884
4892	6161
4892	6630
4892	7158
4892	8401
4892	8402
4893	6739
4893	7157
4893	7158
4898	7157
4898	7159
4901	6321
4907	7772
4908	5101
4913	6319
4913	6840
4913	6841
4913	6842
4917	5829
4917	5831
4917	6489
4920	4940
4921	4924
4921	4925
4922	4923
4923	4925
4924	4925
4926	6982
4926	7280
4926	7542
4927	5349
4927	6997
4928	6733
4928	6809
4930	5274
4930	5275
4931	6985
4932	5608
4932	7000
4934	5780
4934	7447
4934	7448
4936	7457
4937	8252
4938	6085
4940	5667
4940	6395
4944	6070
4944	6711
4944	6780
4954	7225
4954	7350
4955	6808
4957	5027
4957	5323
4957	6811
4959	6367
4959	6820
4959	6870
4960	5073
4962	6883
4964	5469
4964	6533
4966	6182
4966	6885
4966	6886
4966	6887
4969	7176
4969	7177
4969	7178
4970	6789
4970	6793
4970	6817
4977	5887
4977	8598
4981	5573
4982	7663
4985	5878
4985	6256
4986	7231
4993	5003
4996	6675
4997	5398
4998	5252
4998	5988
4998	6676
4998	6677
4999	5010
4999	7061
4999	7062
5000	5031
5002	5932
5002	5933
5003	6758
5005	7475
5006	5305
5006	5862
5006	6256
5006	8087
5006	8088
5006	8089
5007	5107
5009	5013
5013	5151
5015	5108
5016	8568
5017	6421
5017	8121
5018	5029
5018	5030
5021	5024
5021	7034
5023	5266
5023	5344
5023	5527
5023	5852
5023	5889
5023	6574
5023	7432
5024	7989
5025	5803
5027	8195
5029	7393
5031	5032
5035	5036
5035	5037
5035	6258
5035	7684
5036	5037
5036	7685
5036	7686
5037	5195
5037	6258
5037	7718
5038	5207
5042	5043
5042	5044
5044	8773
5050	5117
5051	5509
5051	7430
5051	7433
5051	7434
5052	7430
5053	6143
5053	6531
5053	6935
5053	7378
5053	7608
5053	7609
5053	7610
5053	7611
5053	7612
5053	7613
5056	7823
5056	8004
5057	5232
5057	6710
5057	8261
5058	8642
5059	5609
5060	5198
5060	6118
5060	6928
5060	8116
5060	8415
5060	8920
5061	6934
5061	9222
5064	5443
5064	6327
5067	5068
5071	5099
5071	5105
5072	5728
5074	5789
5077	8082
5077	8083
5078	5510
5078	6725
5078	8108
5079	7201
5079	7520
5080	5971
5080	6223
5080	7330
5086	5836
5086	6522
5086	8099
5086	8439
5089	5888
5089	7736
5089	8451
5089	8452
5091	8460
5097	8437
5098	5102
5098	5648
5098	6091
5098	7003
5098	7503
5098	7951
5098	8748
5101	5689
5106	7779
5106	7780
5109	7078
5111	7772
5114	5905
5118	5129
5118	5445
5118	6661
5119	7668
5122	6952
5122	7055
5122	9230
5122	9231
5124	5939
5124	7604
5125	8220
5128	6613
5129	6555
5130	5705
5130	5723
5130	5724
5131	6257
5132	6592
5132	6593
5132	6594
5132	6595
5133	5705
5134	6616
5135	5512
5135	5549
5135	6617
5135	6618
5138	5835
5139	6184
5139	6554
5139	6706
5140	6162
5142	5600
5143	6785
5149	5264
5149	5633
5151	5781
5153	6431
5154	7538
5161	5162
5161	5776
5161	7124
5161	7125
5161	7126
5161	7127
5164	5165
5164	5166
5164	5167
5166	6023
5166	6040
5166	6353
5166	6470
5166	6980
5166	6981
5169	7216
5170	5206
5171	5345
5172	6759
5175	7326
5175	7327
5176	7267
5176	7330
5179	7148
5180	5317
5184	7605
5186	5310
5186	6683
5186	7442
5186	7659
5186	7660
5186	7661
5187	5211
5188	7419
5189	5616
5189	5855
5189	7427
5192	7668
5193	5793
5193	5821
5193	6023
5193	6026
5193	6027
5193	8415
5197	6374
5199	5250
5203	7234
5203	7804
5203	7879
5203	8447
5204	7732
5205	6998
5206	7303
5206	7802
5208	6452
5212	5871
5212	5872
5213	5735
5213	8017
5218	6006
5218	8292
5219	5555
5220	5555
5220	8293
5222	5304
5224	7082
5224	7083
5224	7084
5224	7085
5224	7086
5224	7087
5225	6741
5231	7222
5232	5252
5232	5254
5236	8033
5238	7081
5247	8144
5249	6874
5249	8483
5250	5871
5250	5872
5252	6710
5252	8132
5252	8261
5252	8262
5253	6710
5253	8261
5254	8261
5257	5258
5258	5733
5259	7812
5263	5652
5264	5272
5264	7414
5265	6382
5266	5304
5266	5447
5266	8359
5266	8360
5269	6442
5269	7312
5270	5272
5270	5273
5271	5778
5273	7293
5276	6555
5276	6751
5279	5356
5280	6440
5280	7694
5281	5713
5281	7762
5282	7763
5284	5977
5284	6162
5284	7084
5284	8084
5285	6162
5285	8201
5287	6593
5290	6843
5295	5670
5295	6364
5298	6915
5299	6597
5299	6759
5299	7695
5301	6849
5302	6850
5303	6851
5305	7188
5306	6402
5308	7441
5310	5929
5310	6848
5310	7442
5310	7443
5312	6915
5319	5724
5319	5771
5319	6835
5319	8856
5320	7723
5321	5322
5323	8433
5333	5334
5334	5338
5334	5339
5338	5543
5340	5644
5340	5917
5340	5918
5340	5919
5342	8463
5343	5400
5343	5520
5343	6780
5349	5393
5349	5397
5352	6968
5355	7263
5355	7264
5356	7678
5356	8274
5356	8275
5356	8276
5356	8277
5356	8278
5356	8279
5356	8280
5362	6688
5363	6014
5363	6213
5364	7477
5365	6213
5365	6288
5366	6044
5366	6206
5366	6421
5366	6436
5367	6443
5369	6595
5369	7872
5371	8126
5372	6011
5372	6084
5372	7594
5372	8074
5372	8216
5373	7853
5381	7461
5387	9201
5393	5567
5394	6102
5395	5543
5395	6363
5396	7705
5396	7706
5400	5418
5401	6501
5401	6502
5401	6504
5401	6621
5403	7616
5405	8066
5405	8235
5408	5518
5419	5420
5420	5422
5420	5423
5420	5424
5421	6259
5422	7367
5423	7367
5423	8757
5424	8540
5426	6331
5426	6332
5426	6333
5426	6334
5426	6335
5429	6527
5430	6905
5431	6038
5431	8094
5431	8373
5432	8781
5432	8782
5435	5798
5436	6260
5436	6261
5437	6262
5439	5462
5439	6265
5440	5441
5443	7996
5445	5953
5445	6306
5445	7594
5445	8461
5445	8944
5445	8945
5445	9220
5446	5447
5446	5953
5447	5953
5447	8273
5448	5953
5453	5787
5453	6380
5453	7357
5453	8515
5454	5455
5459	8281
5459	8282
5462	5473
5462	5474
5462	5475
5462	5476
5465	6321
5465	7273
5465	7274
5465	7275
5465	7276
5465	7277
5465	7278
5465	7279
5472	8694
5474	8920
5476	9040
5476	9041
5476	9042
5477	7065
5477	7068
5477	7458
5478	6589
5478	7142
5479	6731
5479	6747
5479	7324
5480	5481
5480	8386
5481	5893
5485	6015
5488	6993
5488	8019
5488	8080
5489	7283
5490	5516
5494	5947
5494	9242
5498	6548
5498	6549
5498	6550
5499	5598
5502	6312
5503	7392
5505	6768
5507	6318
5508	6318
5509	8043
5509	8044
5510	6725
5510	6930
5510	8108
5512	6617
5512	6618
5519	7725
5521	6193
5522	6187
5522	6509
5522	6925
5522	7800
5522	8180
5522	8181
5523	6295
5523	6326
5523	7488
5523	8757
5526	6179
5528	6593
5528	6816
5531	6016
5531	7866
5531	8460
5531	8464
5531	8743
5533	8743
5533	8744
5533	9145
5534	6150
5534	6665
5534	7205
5534	7396
5534	7593
5534	9000
5538	6416
5541	9068
5543	5549
5544	5550
5545	5549
5545	6995
5552	5553
5553	7444
5555	6911
5555	7985
5555	7986
5558	6656
5563	5577
5564	5566
5565	7275
5565	8557
5567	7305
5569	8375
5571	5572
5572	6834
5575	5988
5577	5578
5577	5579
5582	8511
5584	6264
5585	6262
5586	6262
5587	6262
5588	6262
5590	5591
5591	5592
5594	8746
5595	6642
5597	6895
5597	7484
5597	7486
5599	6523
5599	7614
5602	6636
5608	7000
5609	7359
5617	6059
5617	8184
5618	6995
5628	7226
5629	6099
5630	6075
5634	7707
5636	6891
5636	7708
5637	6285
5641	5642
5641	5643
5642	5650
5644	5920
5647	7917
5653	5882
5653	6956
5654	5882
5654	8429
5655	5656
5655	6578
5656	6578
5656	8695
5657	9183
5660	7847
5661	5951
5661	8051
5661	8052
5662	6011
5662	6581
5663	5666
5666	5954
5669	5678
5670	6357
5670	6421
5670	7819
5671	5811
5672	6994
5672	7540
5674	7471
5676	6630
5676	6994
5677	5692
5679	5724
5679	7002
5679	7003
5682	8818
5682	8819
5687	5688
5690	6364
5696	6603
5698	6702
5698	6703
5703	5724
5704	8485
5705	5724
5706	5708
5706	6743
5706	8396
5707	7853
5708	8396
5711	5712
5711	6819
5711	6821
5712	6643
5712	6819
5712	6821
5713	8655
5715	6558
5719	6608
5722	7541
5724	6038
5724	7602
5724	7673
5728	6691
5731	6495
5734	5735
5738	5739
5740	6763
5740	6764
5746	7011
5753	5787
5753	6380
5755	7403
5759	5980
5759	6204
5762	6106
5762	7258
5767	7098
5774	8648
5776	7693
5780	8023
5787	6380
5787	7356
5787	7357
5787	7358
5789	6214
5798	8486
5799	6822
5803	6076
5803	6077
5803	6078
5804	6079
5804	6080
5804	6081
5806	5807
5806	6846
5808	6392
5808	6400
5809	6969
5812	8079
5815	7307
5815	7470
5815	7471
5815	7472
5815	7473
5817	6883
5817	7633
5817	7914
5823	6370
5827	6589
5827	7924
5829	5830
5831	5909
5832	7494
5832	8027
5832	8028
5832	8029
5832	8030
5832	8031
5833	8075
5835	7612
5836	7944
5836	7945
5836	7946
5837	7635
5837	9027
5837	9028
5840	7179
5842	6044
5842	6267
5842	7167
5842	7658
5845	7238
5847	7180
5847	8380
5848	6248
5849	6889
5852	6891
5854	6972
5854	8294
5854	8296
5859	7051
5860	5862
5860	8087
5860	8088
5860	8209
5861	8088
5861	8209
5865	7781
5870	5927
5870	7730
5871	5872
5871	6076
5872	6076
5874	6076
5875	6076
5881	7796
5882	6613
5882	6739
5882	7131
5882	7157
5882	8347
5882	8348
5883	6361
5883	6504
5883	7157
5883	7159
5886	5887
5886	6613
5886	6739
5886	8021
5886	8346
5886	8462
5887	6613
5887	6739
5887	8021
5887	8346
5887	8462
5888	6512
5892	6790
5893	6931
5895	6040
5895	6367
5895	6835
5895	6957
5895	6958
5895	6959
5902	7609
5905	8696
5912	5915
5912	7717
5916	6588
5916	7525
5916	7551
5916	8058
5916	8457
5916	8458
5916	8459
5917	5918
5921	5922
5923	7418
5923	7911
5924	8374
5925	6143
5925	6144
5928	7016
5929	7442
5929	7660
5930	7442
5930	7659
5930	7660
5930	7661
5936	6412
5936	8205
5936	8206
5946	9250
5947	7965
5947	9238
5949	5950
5949	6418
5949	7016
5950	7326
5951	8455
5958	6613
5958	8462
5958	8844
5964	5965
5974	8083
5977	8874
5980	6201
5983	5984
5983	6385
5983	8551
5983	8552
5984	6638
5984	7446
5984	8551
5986	8832
5990	9058
5993	6946
5999	7633
5999	7634
6000	6739
6001	9263
6008	6669
6010	6488
6011	7644
6011	7645
6012	7181
6012	7185
6014	7013
6014	8078
6015	6211
6015	8372
6016	6786
6016	7866
6016	8460
6019	8987
6038	6577
6038	8954
6039	6607
6039	6685
6041	7021
6043	6083
6044	6892
6046	6502
6046	6503
6046	6504
6047	7190
6052	8654
6056	6057
6056	6060
6056	6501
6056	6502
6056	6883
6056	6913
6057	6060
6057	6504
6057	6913
6057	8027
6057	8047
6057	8048
6060	6913
6067	8420
6067	8421
6069	6264
6069	8120
6070	6215
6070	6780
6071	7593
6073	6082
6075	8959
6076	8900
6077	8406
6079	6206
6080	7039
6082	8913
6083	7409
6084	6445
6084	8217
6085	6988
6086	7412
6089	6546
6091	6459
6092	7268
6093	6187
6105	6213
6107	7229
6111	6113
6114	6115
6114	7027
6114	7028
6116	7729
6118	6150
6118	6649
6118	6952
6118	7135
6123	6326
6125	7908
6131	7612
6135	7029
6135	7130
6135	7680
6137	6138
6139	6142
6139	6812
6143	7023
6143	7729
6146	6150
6150	6377
6150	7128
6150	7129
6150	7130
6151	7401
6154	6294
6154	6602
6154	7680
6156	7832
6156	8690
6156	8691
6157	8756
6158	7244
6164	9067
6166	6548
6166	8425
6166	8426
6175	7268
6176	8793
6177	6213
6183	7680
6183	8476
6184	6733
6186	7993
6188	9229
6193	6636
6193	7346
6193	7393
6193	7703
6193	7753
6193	7754
6200	6201
6200	6202
6201	6203
6201	6204
6202	7506
6202	7619
6202	7969
6202	7970
6203	6891
6205	6443
6205	7221
6206	6255
6211	7424
6216	7822
6216	7823
6216	8007
6218	7375
6222	6339
6223	7691
6226	6344
6257	6292
6257	6293
6258	7719
6259	8435
6260	7650
6261	7274
6261	7276
6261	7277
6261	8252
6261	8253
6261	8254
6261	8255
6261	8256
6261	8257
6261	8258
6261	8259
6261	8260
6262	9025
6262	9026
6264	6613
6264	8004
6264	8068
6264	8686
6266	8801
6267	8491
6270	9243
6273	6285
6274	6605
6275	8710
6275	8960
6275	8961
6279	9163
6281	7092
6283	6335
6283	7185
6283	8978
6286	7144
6286	8833
6288	7988
6290	6816
6290	6950
6290	7219
6294	6311
6294	6312
6294	6313
6294	6314
6294	6315
6294	6316
6295	6313
6295	6314
6295	6328
6295	6329
6295	6330
6296	6331
6297	6336
6300	8787
6302	9095
6303	6381
6313	6602
6314	6602
6320	6364
6320	6882
6321	6421
6321	6589
6321	8896
6325	8264
6326	7832
6327	8060
6328	6602
6328	7370
6328	7991
6329	8109
6330	8791
6332	7071
6332	7394
6337	6338
6338	8030
6338	8210
6341	6977
6341	6978
6346	6786
6351	9258
6354	8351
6355	8909
6355	8910
6356	6733
6357	8035
6357	8563
6358	8034
6359	6750
6361	6504
6361	6621
6361	6984
6362	8502
6364	7023
6364	7819
6367	6589
6367	6786
6367	6809
6367	6820
6367	6825
6367	6826
6367	6870
6368	8926
6373	8397
6375	8236
6377	7633
6379	7636
6380	6464
6380	6490
6380	7238
6380	7675
6380	7676
6380	7677
6382	8988
6384	6544
6385	8517
6389	8847
6391	6770
6392	6853
6400	6854
6400	7288
6400	7289
6400	7290
6400	7291
6403	6404
6403	6723
6403	6853
6404	6405
6404	6723
6405	6406
6405	6723
6406	6723
6406	6853
6406	7058
6407	6409
6407	8875
6408	6409
6412	8186
6412	8202
6412	8203
6412	8204
6421	6571
6421	7093
6421	8818
6421	9165
6421	9166
6423	7509
6423	8634
6423	8635
6424	8341
6424	8398
6424	8399
6424	8400
6427	7397
6428	9237
6435	8824
6436	6732
6440	7851
6441	6551
6443	6529
6443	7141
6446	8247
6446	8248
6448	6580
6450	8677
6450	8678
6450	8679
6452	7098
6454	7090
6457	6533
6459	9121
6464	6904
6473	7612
6480	6998
6482	8248
6486	7313
6496	6499
6501	6502
6501	6503
6502	6503
6502	6504
6502	6984
6503	6504
6504	6984
6505	7274
6506	7527
6507	9152
6517	6518
6517	6519
6519	6522
6519	6523
6523	7614
6524	9265
6527	8743
6527	8744
6527	9146
6533	7330
6533	8222
6533	8223
6541	9020
6554	7716
6564	7639
6568	6569
6570	7351
6571	7981
6581	8281
6581	8283
6581	8878
6586	9147
6589	6600
6589	7650
6589	8517
6594	6745
6600	6953
6600	7440
6601	8419
6605	7015
6605	7633
6607	6608
6607	8797
6609	8424
6611	9029
6613	6739
6613	8749
6619	8971
6619	8972
6620	7725
6621	6913
6621	6984
6624	8127
6630	7690
6630	8403
6630	8404
6636	6690
6637	7766
6637	7924
6638	7179
6640	6641
6643	7036
6643	7413
6646	6703
6654	9125
6660	7239
6661	8496
6664	7395
6667	8559
6667	8560
6667	8561
6668	7706
6669	6825
6669	6826
6678	8399
6680	7745
6683	7442
6686	6912
6686	9150
6686	9151
6691	6866
6695	7150
6700	8380
6700	8542
6700	8543
6700	8544
6701	8710
6709	8856
6725	6930
6725	8108
6727	8477
6733	6734
6733	6735
6733	6736
6739	8345
6739	8346
6744	6747
6745	8502
6747	7093
6747	7639
6751	6863
6751	8084
6751	8450
6752	8189
6759	6760
6759	6761
6760	7696
6762	7623
6763	6764
6769	7210
6774	8335
6774	8547
6774	8606
6774	8607
6775	7511
6775	8606
6775	8607
6775	8923
6775	9227
6785	7486
6786	6788
6786	8668
6787	8464
6787	8465
6789	6793
6793	6815
6793	6817
6793	6904
6797	7631
6797	8470
6797	8471
6797	8472
6799	6913
6803	6804
6803	6805
6803	6806
6804	6807
6805	6806
6807	9086
6807	9087
6808	6813
6808	7198
6809	6820
6810	7329
6811	8195
6812	7324
6818	7971
6819	6821
6820	6825
6820	6826
6820	6870
6820	8615
6828	6829
6828	7681
6828	7682
6836	7386
6839	7494
6839	8027
6839	8028
6839	8031
6841	7799
6842	7187
6850	8680
6851	6856
6851	8289
6851	8845
6854	7288
6857	8524
6861	8465
6864	7007
6864	8519
6867	7140
6867	7712
6868	7150
6874	7023
6875	8579
6881	7097
6882	7235
6882	7354
6883	7897
6885	8758
6888	7633
6891	7598
6891	8218
6891	8638
6891	8760
6891	8761
6891	8762
6891	8763
6891	8764
6891	8765
6894	7203
6895	7484
6904	7677
6906	7417
6913	7107
6913	7382
6913	7874
6913	7875
6913	7876
6913	7877
6913	7878
6913	7879
6913	7880
6913	7881
6913	7882
6913	7883
6916	8942
6931	8843
6932	7179
6933	8780
6935	7378
6935	8131
6941	8924
6953	7440
6958	8747
6962	8436
6970	6972
6972	7438
6973	6974
6974	6975
6974	6976
6977	9002
6981	9298
6983	7280
6983	7281
6994	8183
6999	9160
7005	7007
7006	7008
7007	8520
7007	8522
7010	8155
7011	7261
7011	7262
7021	8109
7026	7069
7029	7130
7029	7680
7029	8785
7029	8786
7032	8770
7037	7217
7037	8516
7038	8538
7042	7286
7047	7211
7054	7818
7059	7715
7060	7715
7063	7064
7065	7066
7065	7067
7065	7068
7082	8068
7082	8069
7090	7091
7096	8200
7097	8084
7097	8200
7098	7099
7100	7105
7100	7106
7101	7107
7103	7108
7104	7108
7107	9034
7108	7498
7115	7122
7115	8846
7116	8293
7117	7972
7121	8433
7131	7469
7131	8348
7137	7378
7138	7378
7150	7476
7152	7153
7157	8349
7159	8349
7162	7171
7167	8689
7176	8554
7177	8554
7177	8555
7178	8554
7178	8555
7181	7182
7181	7185
7183	7637
7184	7389
7184	7637
7186	7921
7187	8749
7198	8984
7198	8985
7203	7204
7209	9257
7210	9088
7211	7783
7212	7215
7212	8326
7213	7215
7213	7483
7213	8326
7213	8327
7220	8304
7226	7963
7233	7804
7233	8446
7234	7804
7234	8447
7234	8448
7234	8449
7235	7499
7239	7782
7242	7243
7250	7417
7250	8828
7250	9069
7257	8334
7258	8661
7258	8662
7261	8121
7261	8122
7265	7266
7267	7299
7267	8019
7267	8020
7267	8021
7268	7793
7268	8213
7268	8214
7271	7272
7274	7276
7288	7289
7293	8576
7294	7653
7297	7511
7297	8632
7299	8020
7300	7301
7301	7302
7304	7309
7307	7470
7307	8799
7307	8800
7307	8801
7312	8002
7313	8823
7320	7384
7324	7325
7329	7826
7329	8251
7330	8743
7345	8357
7347	8066
7349	8240
7349	8241
7349	8242
7349	8243
7349	8244
7351	8831
7360	7377
7367	8992
7372	7487
7372	8923
7376	8977
7380	7407
7380	7665
7381	7686
7384	8858
7384	8859
7384	8860
7384	8861
7384	8862
7384	8863
7387	7987
7389	8381
7392	7630
7397	8473
7398	7921
7398	8723
7402	8530
7402	8531
7410	8325
7417	8828
7419	8739
7419	8740
7419	8741
7419	8742
7421	7422
7422	7423
7428	7429
7433	7434
7434	9018
7436	7437
7440	7966
7441	8005
7446	7741
7446	8553
7447	8023
7448	8023
7451	8285
7453	8286
7462	9075
7470	7472
7470	8799
7471	8350
7472	8799
7479	7480
7479	7481
7480	7482
7493	8537
7506	7619
7509	8635
7521	7522
7521	7523
7521	7524
7531	9277
7534	7535
7536	7537
7538	7539
7543	7866
7545	8580
7546	7595
7560	9219
7593	8127
7595	7596
7595	8542
7595	9008
7595	9009
7595	9010
7596	8542
7596	8869
7596	9009
7599	7600
7602	8688
7608	7614
7609	7617
7609	7618
7609	7619
7609	7620
7609	7621
7621	9194
7625	9047
7630	8536
7633	8370
7633	9226
7635	7636
7640	7931
7640	8015
7640	8016
7640	8888
7641	7926
7647	8237
7647	8613
7647	8614
7651	7652
7654	7656
7660	8753
7666	7852
7674	8547
7675	8041
7686	7721
7686	7722
7691	8719
7702	8998
7702	9001
7703	8095
7705	7794
7710	7711
7718	7719
7719	8089
7719	8908
7721	8081
7721	8567
7725	7903
7727	7742
7730	8596
7737	8771
7742	8272
7742	8649
7761	8222
7765	8564
7766	7924
7774	9181
7784	9005
7790	7791
7796	7981
7804	8447
7804	8448
7804	8449
7809	8519
7814	8503
7821	7822
7821	7823
7821	7824
7821	7825
7823	8004
7823	8005
7823	8006
7824	7825
7824	8005
7824	8006
7826	8494
7832	8690
7834	8236
7834	8725
7834	8726
7841	8603
7849	7850
7852	8187
7858	9283
7865	8469
7866	8460
7866	8464
7866	8743
7866	9049
7874	7884
7887	9240
7893	7894
7893	7895
7895	7896
7896	8234
7896	8235
7898	8921
7898	8996
7902	8091
7921	8856
7921	9142
7924	8475
7931	8015
7947	7948
7964	7968
7965	8361
7973	7974
7978	9200
7979	7980
7981	8663
7986	8293
7986	8991
7988	9180
7999	8396
8005	8008
8007	8068
8015	8016
8015	8888
8017	8018
8021	8346
8024	8025
8025	8026
8029	8030
8029	8046
8031	8660
8042	8334
8043	8044
8058	8759
8063	8064
8068	8069
8075	9072
8076	8215
8079	8871
8079	8932
8084	8200
8091	9275
8094	8373
8108	8881
8109	8724
8112	8918
8119	8143
8120	8453
8121	8559
8123	8124
8127	8393
8133	8499
8143	8986
8149	9058
8150	9107
8186	8202
8197	8198
8198	8199
8208	9118
8210	8211
8211	8212
8240	8511
8252	8253
8252	8254
8253	8254
8264	8848
8264	8849
8264	8850
8265	8467
8265	8848
8265	8849
8265	8851
8265	8852
8265	8853
8281	8283
8297	8298
8297	8299
8298	8300
8299	8300
8302	8303
8305	8306
8313	8940
8341	8342
8343	8344
8351	9253
8354	8951
8357	8358
8361	8362
8380	8423
8389	8390
8396	8397
8399	8722
8406	8718
8408	8640
8408	8871
8409	8640
8409	8871
8410	8871
8414	9164
8420	9110
8427	8428
8430	8580
8441	8484
8442	8443
8460	8743
8460	9049
8464	8465
8464	8918
8464	9021
8476	8795
8476	8796
8477	8478
8481	9249
8482	9269
8483	8865
8487	8488
8493	9074
8505	8506
8505	8507
8505	8508
8507	8509
8509	8510
8515	8685
8520	8521
8542	8869
8542	9043
8547	9223
8547	9224
8548	8549
8550	9135
8553	8983
8578	8579
8590	9131
8601	8602
8603	8604
8603	8605
8604	8605
8604	8957
8604	8958
8608	8609
8608	8610
8609	8611
8610	8611
8616	8617
8634	8635
8638	8639
8644	8645
8645	8646
8653	9054
8657	8658
8657	8659
8672	8834
8673	8674
8675	8676
8682	8683
8697	8698
8699	8700
8704	8705
8705	8706
8710	8960
8710	8961
8734	8787
8734	9244
8734	9245
8734	9246
8734	9247
8734	9248
8743	8744
8747	9044
8751	8752
8754	8755
8766	8767
8768	8769
8772	9254
8789	9016
8792	8952
8820	8821
8828	9069
8829	8830
8833	8888
8833	8889
8835	8836
8836	8837
8838	8839
8839	8840
8841	8842
8846	9052
8846	9053
8847	9011
8850	8851
8854	8855
8857	8858
8857	8859
8857	8860
8857	8861
8857	8862
8857	8863
8858	8859
8858	8860
8858	8863
8858	8864
8859	8860
8859	8862
8859	8863
8859	8864
8860	8864
8861	8862
8861	8863
8862	8863
8868	9264
8869	9008
8869	9010
8872	8873
8876	8877
8879	8880
8886	8887
8889	9276
8890	8891
8901	8902
8904	8905
8904	8906
8904	8907
8909	8910
8916	8917
8927	8928
8933	8934
8937	8938
8940	8941
8949	8950
8953	8954
8956	8957
8956	8958
8960	9030
8960	9031
8961	9031
8962	8963
8964	8965
8966	8967
8968	8969
8968	8970
8970	9022
8973	8974
8975	8976
8979	8980
8980	8981
8982	9218
8989	8990
8994	8995
8997	8998
8997	8999
8998	8999
8998	9000
8999	9001
9003	9004
9005	9006
9017	9018
9017	9019
9023	9024
9032	9033
9035	9036
9037	9038
9037	9039
9045	9046
9050	9051
9052	9053
9055	9056
9055	9057
9056	9057
9059	9060
9060	9061
9061	9062
9063	9064
9068	9069
9069	9116
9069	9117
9076	9077
9076	9078
9084	9085
9089	9090
9090	9091
9093	9094
9096	9097
9098	9099
9100	9101
9102	9103
9105	9106
9108	9109
9109	9113
9114	9115
9119	9120
9123	9124
9133	9137
9133	9138
9133	9139
9138	9139
9148	9149
9153	9154
9153	9155
9157	9158
9161	9162
9168	9169
9170	9171
9173	9174
9178	9179
9185	9256
9192	9193
9195	9196
9198	9199
9203	9204
9205	9206
9207	9208
9232	9233
9234	9235
9238	9239
9249	9268
9259	9260
9259	9261
9266	9267
9269	9270
9271	9272
9271	9273
9271	9274
9279	9280
9281	9282
9284	9285
9286	9287
9288	9289
9290	9291
9292	9293
9294	9295
9296	9297
9299	9300
9301	9302
